108
#Comment!
LJ  0.36341106363640729   -0.30316792888364869   0.37288328437462565
LJ  0.28576692353802835   -0.026649720925559357   -0.06275091109964237
LJ  -0.21818150166272876   -0.14948417428765973   0.063139723120209948
LJ  -0.1768463509350888   -0.29597231954409831   -0.35349824269690067
LJ  -0.30645450827069792   -0.41901864062039101   -0.2118280462185762
LJ  -0.33076134692589859   -9.0673777417645373e-05   0.10663835303060058
LJ  -0.30607571982683046   0.13617346171039862   -0.20861789474163694
LJ  0.12766436686684043   0.35977096710755019   0.23797256544846368
LJ  -0.21900517488230742   0.043534520735512429   0.36876707990610802
LJ  -0.28415682196427722   0.17881728240659125   0.20582621462948864
LJ  0.028540143173275488   0.26552172465627821   -0.22716284359659208
LJ  0.25422208164038518   0.24557141550513434   0.0043436240002278055
LJ  0.34222451539628124   0.35252270285898024   0.14283699550421514
LJ  -0.20028716453458359   0.1731295088182076   -0.4328527345651989
LJ  0.23938101077212998   0.38965931277459853   0.42300227536372398
LJ  -0.18621285756510941   0.37762233388432459   0.47272396798723287
LJ  0.13840901846691225   -0.21937054764527217   0.4339156990539671
LJ  0.24129326044376478   -0.28043741885076112   0.22862101461732154
LJ  -0.25457618523995634   -0.19400609451100639   0.49477234601917752
LJ  0.013780139015992005   0.48582493215337913   0.4584794792028985
LJ  0.071195772108168076   0.27207747495578066   0.40993338151939074
LJ  -0.033879542625662125   0.28471460531424009   -0.41386040310939398
LJ  0.39772006870454579   0.069407333820896228   0.42049746560528833
LJ  0.44529683940209541   -0.38813884146615313   0.16781501169659321
LJ  0.062178327044620008   -0.087294382176329108   -0.21128554305113151
LJ  0.24340390809078569   0.28895633824291328   -0.18750361986782399
LJ  -0.1123780861921861   0.21886497566844948   0.3735090945778427
LJ  0.24322802534094048   0.13646353928109756   0.32647932015573256
LJ  0.40573777378454629   0.1447437518031113   -0.062894872400695856
LJ  -0.49785240676013198   -0.15798027104466042   0.45404419212837882
LJ  -0.36030587919988122   0.034740794958299084   -0.45260765078528453
LJ  -0.11841617257997517   0.48284723436566795   -0.37796089358946139
LJ  0.46842839756239124   0.49595390077242119   0.43444917694536728
LJ  -0.30227273760478685   -0.39307021972978801   0.172323784338862
LJ  0.059205347704136546   0.34336105029010433   -0.04379437562895127
LJ  0.043568366739366857   -0.092916113682516524   -0.010697762281451749
LJ  -0.082909816419925175   -0.25977319572471153   0.15833345504356078
LJ  0.4037925509528113   0.46283941905020387   -0.38296743726610316
LJ  -0.094509495000735369   0.40768751896281263   0.2804566193598802
LJ  0.46463053081117583   -0.1868716864465815   -0.3446585265237001
LJ  -0.37484748217775349   -0.094223026553716963   0.28744400612839105
LJ  0.37357993856726429   0.25199090432912546   -0.47740210192136173
LJ  0.033823891432047365   -0.41075236838847373   -0.11502055854750048
LJ  0.13319447780252966   -0.19808316216439742   -0.35244408809512401
LJ  -0.47471079008252487   -0.35579836239701013   -0.46011660299958729
LJ  0.040481381974840948   0.11163513796032493   0.27919249619053083
LJ  0.33251229933822551   -0.3486363368330429   -0.33719433162001022
LJ  0.31550790184123823   0.078586023730603957   0.13861817025683396
LJ  0.028662937655707346   -0.40811470437763242   0.27925453229375596
LJ  -0.49364164303901104   -0.34412213688060889   -0.23281612797293358
LJ  -0.40165527248868699   0.33441604587286111   -0.48268850551845777
LJ  -0.35877370563083238   0.38435519187989242   -0.086934913126680002
LJ  0.31107784148465129   -0.071987417004593518   -0.26834322969644503
LJ  -0.43059477933791762   -0.38621585038389156   0.0084566537593167169
LJ  0.45795057425902647   0.31838127028192525   -0.19878457315552744
LJ  0.19287880530823831   -0.096428343483144607   0.11356572223326944
LJ  -0.048741606560950744   0.085958642567646126   -0.27607434415275867
LJ  0.08516358345280732   -0.27664472222741249   0.026933859212050427
LJ  -0.38305287067988431   0.18164445173944574   0.39205426893135409
LJ  0.45476605784252855   0.47590041007193679   -0.065736821844095836
LJ  0.085668203329733281   0.1149438702141642   0.015677739579463917
LJ  -0.29363466149054074   -0.45753171583958396   -0.44059316156700901
LJ  -0.16343601724492304   -0.41701110230131483   0.35142420896634613
LJ  -0.1095422211476763   0.44827694550855191   -0.17539980815898537
LJ  0.038060663774811002   -0.39354066629326345   -0.3312936944851636
LJ  -0.43432275422687167   -0.025783531211549023   -0.26653117267426085
LJ  0.30166056358361226   -0.49511509338225723   0.26022827876587279
LJ  -0.14501579931140418   -0.0015094372213389331   -0.080103891184392026
LJ  0.33158217676277479   -0.25215263910183283   0.065916771233733087
LJ  -0.49483810678666529   0.44472749912440818   0.24323696477184814
LJ  -0.32883400445678596   0.36351130126218889   0.32676286734788063
LJ  -0.46386165328909967   0.26570535685680907   0.095463846207130568
LJ  -0.41195443050742808   -0.17230860734935569   0.092874796549202041
LJ  0.15460425556801413   0.40338073725415824   -0.39249796841427459
LJ  -0.35245363241360367   -0.20879642836265636   -0.30592211757026117
LJ  -0.019815786625761011   0.25192523867675054   0.12965229919594631
LJ  0.47071287816166762   -0.019758360605513035   0.037248152048133622
LJ  -0.11860044492390803   0.052856503024527199   0.10352299505655552
LJ  -0.39801126927471825   0.42371294098706169   -0.30569086785373073
LJ  0.19581649652075772   0.14944464254447462   -0.41929130722863067
LJ  -0.4165399137410169   -0.35531978954873661   0.35386823937708906
LJ  0.42246429852734879   -0.10405579572541948   0.20876226982343696
LJ  -0.22919394781970859   0.31467767677624675   -0.26760095930827804
LJ  0.22021550733751838   0.45711901790427356   0.03035188990311681
LJ  0.28460718256559259   -0.1045088487603342   -0.48038845889183873
LJ  0.45679006099578545   -0.15504868368218921   -0.096102211175542449
LJ  0.1027781145195879   -0.0066436298654282645   0.45800021008359865
LJ  0.18364324149847921   0.10863133863093899   -0.23701472848010183
LJ  -0.34499212467646706   -0.044156579639612767   -0.093290699960323117
LJ  -0.0056072778584655416   -0.49208491650371677   0.11087832313574018
LJ  -0.21540151130029711   -0.017873105392612523   -0.29536591371519233
LJ  -0.068231215291030933   -0.27411496753441228   0.46508518281427502
LJ  -0.14270867659016431   -0.17032146506615575   -0.19971654557600338
LJ  0.21721773626434196   -0.23497042250924294   -0.17311150733060648
LJ  0.48746776963068711   0.09520651555646599   0.23149698509500055
LJ  -0.18835742926770868   -0.42048700459644711   -0.05027292611681293
LJ  0.25280627128326244   -0.067729856688399925   0.30541450200592102
LJ  -0.12691223490225403   0.20056710763323438   -0.096259533920972959
LJ  0.40068094660310216   0.081050765771947808   -0.37026142262914247
LJ  -0.28277328292816478   0.16943127336795683   -0.008457066719018639
LJ  -0.086257441127478809   -0.063231953364745547   -0.43726355846986387
LJ  0.40194940466395801   0.27489530680393975   0.32175307508877049
LJ  -0.1904052526616318   -0.19993800679396634   0.29579537908693465
LJ  -0.3194619897331864   -0.25431287233314431   -0.077215936909258057
LJ  0.19743536022903746   -0.4175940809291136   -0.48333153305936061
LJ  -0.18172791552401918   0.34854545672915166   0.067454897904658057
LJ  0.25757060337589427   -0.44824942613896368   -0.1664681604214604
LJ  0.017581056753388752   -0.12288603413735767   0.27978939871584274
