108
#Comment!
LJ            6.0714        -6.35187         -3.8657
LJ          -3.63553       0.0703546        -3.80193
LJ          -3.41401        -1.79083        -1.02802
LJ          0.999053        -6.06914         1.12878
LJ         -0.292488        -2.25928        -3.43196
LJ           3.52429        -4.79192          5.2185
LJ          -1.61144         -2.2495        0.269371
LJ         -0.368183       -0.942785        -2.94649
LJ           5.80509        -2.13789        -5.33907
LJ           1.14405        -2.57361        -3.08078
LJ           3.03615        -5.87184        -5.93453
LJ           3.63259        -4.55609        -1.59942
LJ          -4.54397       -0.377431       -0.622435
LJ          -1.44207         2.56479        -3.90337
LJ           -1.8934          1.5679        -1.77175
LJ          -3.77451        -5.93052       -0.393539
LJ          0.585344        -1.63713        -3.49015
LJ          0.442429        -1.24505        -5.10533
LJ          -1.44448       -0.587844        -1.95362
LJ           1.61908       -0.355051         -1.3844
LJ            0.7506        -3.00428        -4.07954
LJ           1.83841        -1.07802        -4.97389
LJ           3.15456         1.85475        0.790369
LJ           5.35521       -0.380889         1.18696
LJ          -5.45979       -0.412405        -5.47589
LJ          -4.51089     -0.00472926         -4.4022
LJ          -4.09626        0.679682        -5.23909
LJ           -1.2193         1.84637        -5.07369
LJ          -5.53949         1.36269         6.09839
LJ           -5.1672         2.95372         5.81405
LJ          -1.59182         2.55879        -2.79407
LJ           1.43285       -0.831212        -3.82847
LJ           3.12149       -0.390467        -3.31075
LJ          0.170316         2.62945        -4.56498
LJ           0.41312          6.0091        -3.29013
LJ           3.23822        0.311513        -2.12042
LJ           -1.3894         5.86642         1.75992
LJ         -0.517879        -2.17206        -1.03756
LJ          -2.19785          5.7571         1.10495
LJ          -2.77533      -0.0379643       0.0719923
LJ           1.13919        -2.45116       -0.443514
LJ          -2.62947        -1.53615        -4.10341
LJ          -4.56797        -4.03235        0.947563
LJ          -0.27256        -2.88243       -0.102778
LJ          0.626892        -2.42896        -1.52096
LJ           -6.4104        0.496964         1.18473
LJ           2.57125       -0.530721        -1.92042
LJ           -1.7028        -2.36434         1.52264
LJ          -5.22751        -1.85349        -3.28067
LJ          -4.31674        0.495722        -1.34609
LJ          -6.05546         2.03431         1.44269
LJ           5.87147        0.701913         2.45438
LJ           1.78251         6.05444        -5.14952
LJ          -2.33473         3.03814       -0.523463
LJ         -0.440629         1.83326        -1.57366
LJ          0.022156        -1.89509         3.26344
LJ          -3.08807        -1.92228         3.31177
LJ           4.22716         0.80114        -2.31094
LJ           -2.5222        -2.59078       -0.336346
LJ          -2.49937       -0.376429        -1.05118
LJ           -4.1414         4.44925         2.71965
LJ           -2.0912         3.72003        -3.80501
LJ           4.74689         6.24424       -0.454463
LJ          -3.76053        0.137478      -0.0675547
LJ          -2.87142         1.35996        0.999552
LJ        -0.0339261         4.18863        0.597192
LJ          -1.87914         5.86192       -0.833168
LJ          0.880522         1.33384        0.404091
LJ           1.57912       -0.707417        0.375503
LJ         0.0807335         5.32736         1.59598
LJ         -0.176849        0.428875         1.65122
LJ           2.19904         6.36553       -0.478674
LJ          -1.08549        -1.42446        0.748421
LJ           -1.6003       -0.746251         1.62417
LJ          -3.46522         1.37819         3.82341
LJ          -3.93249        -5.17226        0.688341
LJ           3.46975        -5.78464         5.88899
LJ          -1.95004        -3.68077        0.850551
LJ          0.828146        -2.99967         4.88113
LJ          0.945212        -2.92231        0.608441
LJ          0.668847         5.66066         3.06947
LJ           3.55042       -0.827276        -2.36777
LJ           1.85083        -3.25603      -0.0846353
LJ           1.13946        -3.44428         1.55907
LJ          -4.32367        -3.68198       -0.789487
LJ          -4.11865          1.2809      -0.0972803
LJ         -0.294489         1.15849        0.487148
LJ          -1.87692        -1.35086      -0.0448805
LJ          -5.40595       -0.272923        0.197987
LJ          -0.61141         -1.0767         3.68383
LJ          -2.17723        -1.99352         2.80681
LJ           3.81578       -0.963629        -5.69605
LJ          0.762435       -0.786591       -0.674451
LJ           3.04425         2.12575        -1.38693
LJ           3.66241         2.84997          1.3077
LJ           2.54617      -0.0813234        0.615601
LJ          -4.50695        0.431715        0.723262
LJ          -3.28139          2.0356      -0.0615494
LJ         -0.628003        -1.50896        -5.88177
LJ          -2.92204         2.21879        -1.14907
LJ          -1.25238        0.573044         2.07571
LJ           1.33629         5.62561        0.662782
LJ          0.282782         0.31707         3.67702
LJ         0.0866862      -0.0250688         2.70486
LJ           3.60331        0.571181         1.36124
LJ           2.53436        0.389101         1.61557
LJ           2.28698        0.984276        -5.19418
LJ           3.62183        0.641666         2.82812
