108
#Comment!
LJ            0.4958        0.829883         1.15643
LJ          -3.44375        -1.52513        -5.70784
LJ           1.82311         5.66684       -0.243879
LJ          -3.44835        -1.03013          1.9359
LJ           1.32441         3.56133        -3.95648
LJ          -3.56164         2.93747         5.52357
LJ          -5.48529          -4.809        -3.79308
LJ          -5.47066         4.58191         -5.0591
LJ          -1.42164        -3.10522        -3.26919
LJ          -1.63143         5.90882        -4.30037
LJ          -4.17135        -5.06478         4.06275
LJ         -0.818199       -0.730011        -6.32291
LJ           2.44961        -4.88534          4.5399
LJ         -0.911475         3.69478        -2.12861
LJ           6.39478        -6.28533         1.65229
LJ           2.56187         -6.0546       -0.179917
LJ          -6.22678         0.77552        -1.24324
LJ         -0.602461         -5.9136        -6.21247
LJ          -1.85844       -0.953603         4.84242
LJ           1.57887        -1.33168         -3.0246
LJ          -4.23294        -4.91673       -0.085608
LJ          -3.28805         2.66626          3.7671
LJ          -4.76723        -6.23756         -1.7913
LJ           3.42448        -1.24726        -6.20996
LJ          -6.15836         3.30181        -6.22681
LJ          -5.78975         -4.2373        -5.65119
LJ           3.68017        -4.06087        -6.03304
LJ         -0.109483         5.28314        -4.48913
LJ           1.85507       -0.106262        -4.54535
LJ          -3.49094         1.88809        -6.38779
LJ           1.58229         6.04347         4.17992
LJ            3.4056         -2.1505        -6.07813
LJ           -3.8327         3.29302        -5.43796
LJ          -2.04823        -2.64629        -4.53488
LJ          -4.18187        -3.36869        -1.38936
LJ          -4.51505         1.61739        0.155934
LJ           3.80578        -5.63486         2.32112
LJ          -1.82457         1.50164        -5.25123
LJ          0.746854       -0.723019         2.74837
LJ          -5.11354        -6.23593        -4.41715
LJ          0.671036         3.50521         3.89774
LJ           4.60684        -5.80522         1.60702
LJ           6.28207        0.302124        -5.31301
LJ           1.84042         1.24361        -4.62908
LJ           6.41021        -2.97696         5.97796
LJ          0.107968         2.76876         3.36834
LJ           3.03142        -6.37976        -3.12653
LJ          -5.64285        -2.23611         4.53844
LJ           1.78869        -5.32159         3.86646
LJ          -3.38363        -3.92504        -4.25826
LJ           1.89493        -1.95426         -5.6965
LJ          -5.64283         5.82037         2.56895
LJ          -5.47969        -2.98961          2.4315
LJ          -5.58987       -0.702953       -0.362948
LJ          -4.37768        -4.36748         1.26131
LJ           -0.3906        -3.36285         3.38418
LJ          -2.89382        -6.45422          4.1553
LJ           2.35929       -0.498979         4.35943
LJ          0.505595        -1.36114         4.11969
LJ          -6.13731         2.89261         3.03834
LJ          0.555229        -1.35493          3.7192
LJ           0.22023         3.72962       -0.597677
LJ            2.3203         1.24821         -2.4692
LJ          -6.28331         3.42726        0.718288
LJ           2.47387         3.61992         3.18271
LJ         -0.371082         3.41547       -0.223265
LJ           6.15927         2.11011        -3.95547
LJ          -3.81165        -4.14368         -5.0766
LJ          -6.07829       -0.973041         3.23003
LJ           2.22828         5.31527        -5.12626
LJ          -4.20928         6.41679         -1.9184
LJ           5.20337        -2.70105         4.50744
LJ           4.34877       -0.665577        -4.28087
LJ           6.01977        -5.36834         1.15586
LJ             3.087       -0.404935            1.59
LJ          0.376858        -2.19451         2.34416
LJ          -2.17579        -5.16089        0.033676
LJ          -5.11797         4.01884       -0.874125
LJ          0.289835        -1.79242        -2.24234
LJ          -1.05614         1.27477       -0.554904
LJ           2.12893         3.35213        -2.72665
LJ         -0.771252          2.1067        -5.14193
LJ          -2.83545        -1.55189        -4.77692
LJ           1.93504         3.31905         5.06866
LJ         -0.941802        -3.43679         2.02304
LJ           5.06783          3.5906         4.85062
LJ          -3.49555         6.24052        -6.44378
LJ          -4.50724         2.48531        -3.94881
LJ           5.04737         3.26712        -2.77564
LJ           4.93871        -5.01796        -1.07418
LJ           2.76766         4.02151       -0.125149
LJ           5.43022        -1.05824        -5.91603
LJ         -0.904236        -3.34225        -5.81908
LJ           4.39531        -4.55128        0.114806
LJ           6.28311        0.768102        -2.58745
LJ         0.0353735         4.81349         3.54012
LJ          -1.21183        -6.08499        0.784519
LJ           2.52904          2.8178         4.10162
LJ          -2.57749         2.06285        -6.44905
LJ          -1.49891         6.45943         1.14756
LJ         -0.150716        -3.04157         5.44577
LJ          -4.63617         5.25307         1.05624
LJ         -0.097517         -4.3354        -2.97512
LJ           1.57987         4.80412         5.73553
LJ          0.350173     -0.00233146         -5.9542
LJ           3.40929         -2.0921         4.02271
LJ           3.31616        -2.91159      -0.0658093
LJ          -3.01297        -5.41568         4.30515
