108
#Comment!
LJ           5.22105         4.24751         4.73225
LJ          -5.58928        -5.41622         -1.9183
LJ           -2.3781         1.50998        -5.97491
LJ           3.86543         2.19589         1.61238
LJ           3.19107          2.9454         3.05255
LJ           -4.6893       -0.429236        -3.65575
LJ           4.94088        -4.78731       -0.849866
LJ           2.30779         5.63566         2.01036
LJ         -0.948184       -0.548445       -0.807715
LJ           5.01608         4.80991        -3.99047
LJ          -1.87059         2.49696        -5.39179
LJ          -3.17274         5.40502         -1.7779
LJ           -2.2289         2.66631       -0.681378
LJ          -1.23949         2.26192        -2.79254
LJ           1.51096        -1.76513        0.386504
LJ          -1.03552       0.0710618         6.11713
LJ           3.85269         4.90467        -5.73267
LJ          -5.11359         5.58666         3.55812
LJ          0.972013         4.01719         1.32481
LJ           5.16628       0.0116948        -3.51302
LJ           -1.8566         3.95735        -3.36214
LJ           -6.1474        -5.16886         4.17055
LJ           1.72637        -5.32181        -2.57528
LJ          -2.76056        0.748784        -4.07809
LJ           5.44792        -5.95786         5.95268
LJ           5.14505         4.49275        0.706314
LJ         -0.342085         3.86223        -4.83258
LJ         -0.472378         5.79688        -5.37853
LJ           2.34032         1.55127        0.313921
LJ          -3.20436      -0.0576686          4.5418
LJ           5.88994         4.36881        -1.84796
LJ           4.99733        -2.91711        0.893941
LJ           0.69853        0.515756          4.1238
LJ          -6.27165         2.79091        -5.00176
LJ          -1.78064         -4.1629         5.55693
LJ          -2.66517         5.74752         3.10307
LJ          -5.78654        -2.91614         3.06156
LJ           -1.4553        -5.65296         -2.9586
LJ           2.81355        -1.54923        -2.10518
LJ           3.08749        -4.43727      -0.0180031
LJ        -0.0575172        -5.30277         1.97125
LJ          0.176289         5.18326           1.061
LJ          -6.16236         5.51809         4.17771
LJ           3.28382         2.98236        -0.14706
LJ           5.19709         2.06717         5.49181
LJ          -1.69311          3.0519         5.08874
LJ          0.903054         5.68448        -4.34277
LJ          -4.81715         1.73421        -5.00543
LJ           4.47383         4.16588         1.43073
LJ          -5.24876         5.82441          1.2279
LJ          -2.69699         6.23021         -5.1015
LJ         -0.381776         -4.3128        -2.88098
LJ           -4.3165        -5.45503         -6.2757
LJ           5.74453        -3.80345        -2.60603
LJ           2.82234         1.77411         4.68929
LJ          0.262353        -6.39107        -5.91353
LJ           2.27305        -3.77669        -3.59716
LJ          0.143951         2.09592         1.91306
LJ           3.58521       -0.334136        -5.19575
LJ            2.6465         3.72134         3.66072
LJ          0.455075         -1.4011        -5.36973
LJ          -1.85434        -2.86156       -0.991734
LJ         -0.884491        -5.61887        -4.79049
LJ          0.506771        -1.66355         4.44089
LJ          -1.06398         4.06315         5.60191
LJ          -6.19245         1.41666          2.6099
LJ          0.468199         5.07762        -5.31589
LJ           0.61305         5.93016        -4.99273
LJ           2.94785       -0.518601       -0.422521
LJ          -5.70837        -4.50198        -4.97126
LJ         -0.623917         -3.3125         2.06827
LJ            3.5391        -5.45408        0.908185
LJ           5.38645        -3.18193        -5.52044
LJ          -4.27359         3.83202         2.79423
LJ          -5.16178         5.79361         5.90195
LJ          -4.76104         5.05385         4.89828
LJ         -0.214877        -2.27786        0.372183
LJ           5.92591       -0.165813         1.56441
LJ          -1.98661       0.0839212        -1.99708
LJ          -4.77102        0.211975         -3.9277
LJ            3.6965       -0.593956       -0.223692
LJ         -0.339645         6.31519         6.34579
LJ         -0.553549       -0.368653         3.47365
LJ          -4.22322        -3.99023         5.01191
LJ           4.90561         2.31336         2.60575
LJ          0.175093         1.49268        -5.70706
LJ          -5.78377         5.38335         4.32251
LJ           2.98389         3.84367         3.21982
LJ          -4.72682         3.65264         5.43777
LJ          -2.25671         2.47583        -5.62705
LJ          -5.57095        -4.07398        -4.96286
LJ          -2.93386         3.88041         5.11724
LJ         -0.644222         5.73207            5.61
LJ           3.64574         2.06502        -4.85836
LJ          -1.78478         -4.5197        -1.79165
LJ          -1.33415          -2.297        0.660243
LJ         -0.685421       -0.428962        0.690216
LJ         -0.839286         1.10512         -6.2239
LJ            3.0785        -1.61793        -2.93056
LJ           -1.0735       -0.696991         2.18395
LJ           4.00305        -5.40057         2.03545
LJ          -1.25502        -3.81132        -5.46363
LJ           1.26303        -1.56687        -4.99479
LJ            -5.009       -0.892889         3.52604
LJ            6.3578        -6.26374         1.20704
LJ            6.0045        -5.70523       -0.292607
LJ           3.63839         1.82902        -2.24205
LJ          -2.64254         4.79642       -0.673712
