108
#Comment!
LJ          0.697473         6.07217         2.79494
LJ          0.107598         5.80875         1.85109
LJ           2.77446         1.59965        -4.09955
LJ           1.04711        -5.46146        -4.55113
LJ          0.663922         1.50188         2.43983
LJ          0.616438        -5.15643        0.355702
LJ          -2.68614         4.75555         5.92355
LJ          -4.07444        -6.34767        -6.11561
LJ          -6.07231        -2.35693         4.61657
LJ           1.87868        0.664764         4.54553
LJ           4.17301          4.9732       -0.963355
LJ           3.09795         2.56221         2.14539
LJ          -4.96703        -4.36687         4.07829
LJ           3.78656         3.35594         -2.7498
LJ         -0.884273         5.44506        -1.10337
LJ            1.2347       -0.288174        -6.33959
LJ            5.3951         4.54845        -4.75192
LJ           2.36655         5.23337         5.50615
LJ          -4.16051        -6.25045         3.76693
LJ           5.34805         5.96329       -0.766956
LJ           5.25028         2.48069         3.32101
LJ           5.84257       -0.555921        -1.01989
LJ           2.38687         3.81878         4.00713
LJ         -0.968014         2.45788        -2.37794
LJ          -4.53465         1.27978        -3.03064
LJ          -1.90185        0.767308         6.26268
LJ           2.02911        -5.66186        -1.41343
LJ           4.99021        -6.35829         2.31971
LJ          -2.08606        -2.70579         2.05057
LJ          -4.14743         3.82557        -3.69106
LJ           5.52537         -1.4715         4.40799
LJ           5.41412        -1.42379        -1.73183
LJ          -2.64118         6.38397         5.65951
LJ           4.80194        -4.92323        -2.09915
LJ          -5.42155        -5.56899        -5.23527
LJ          -0.88365        -1.62844        -5.77098
LJ          -2.07013        -1.00634        -0.71222
LJ           5.99424         3.04971         3.31283
LJ           6.07636         4.29335         6.28966
LJ          -2.12385        0.798733        -5.51982
LJ           4.07159        -3.56982          5.8165
LJ          0.194941         1.25823        -1.21967
LJ          -2.91039        -4.98467        -0.83699
LJ           -1.8077         1.93017        -2.40625
LJ          -2.62331       0.0338293        -3.98702
LJ          -5.40476        -1.63437         -5.8469
LJ           5.42972        -2.88735         2.95514
LJ          -1.04786         2.48623         3.34448
LJ           6.36786         4.42239        -1.20473
LJ           5.36399        -1.78927         1.93886
LJ           2.85076        0.132185         5.96088
LJ           3.74549        -1.19755       -0.835633
LJ           3.67542          3.2507         5.71687
LJ           3.72006         1.62188          4.7988
LJ          -2.34753         2.03663         2.93562
LJ         -0.780754        -3.34172        -5.59352
LJ           4.59647        -1.55163         1.09946
LJ           3.97302        -6.05001        -2.51112
LJ           2.61986         2.70586       -0.903379
LJ           4.77513         1.47695        -2.15728
LJ           -5.0986         -5.3936         1.48426
LJ            4.7065        -4.21182        -4.92598
LJ          -1.12241         2.78914        0.560874
LJ         -0.146644          3.7826         2.78674
LJ          -6.29649         4.78973        -5.42909
LJ           1.32158        -2.76955        -2.91188
LJ           -1.5289       -0.920317        0.989807
LJ           5.99745        -3.44493         5.11586
LJ          -2.76688        -3.36576         5.96495
LJ          -1.65163         2.24487         5.11759
LJ           1.04314        0.225431        -4.96458
LJ         -0.920547         5.77598         4.45058
LJ          -1.77613        -1.33525        -5.62763
LJ          -4.09943         0.29315       -0.554531
LJ           5.29758           3.399          1.5379
LJ           3.26567         3.42543         2.97013
LJ           3.13617       -0.862545       -0.369984
LJ           -3.4995       -0.263822         1.64661
LJ           5.19636         1.65341        -2.29267
LJ           1.82236         6.21525      -0.0963998
LJ          -0.05609        -1.94823         4.89879
LJ           3.40201         4.74435       -0.291571
LJ          -2.60308         5.36988        -5.84321
LJ          -6.21838        -1.53809         -4.8061
LJ          -4.63236          2.3226        -5.93632
LJ         -0.323843          1.7137         -2.2635
LJ          -4.87495        -6.36977         1.77489
LJ           1.76742        -1.46888        -5.46304
LJ         -0.132155         1.08557        -2.80079
LJ          0.704952         6.21334         5.74299
LJ          -4.22261         1.70032          3.9733
LJ          0.941876        -3.03735         4.67957
LJ           4.39783        -6.27344        0.121048
LJ          -3.23655       -0.724839        -4.70849
LJ           1.45581         6.28924         4.43043
LJ           1.94471        -3.26177         -4.1918
LJ           1.96259        -5.84583         3.59719
LJ           4.66608        0.951638        0.436178
LJ          -5.49092         5.22588       0.0675149
LJ          -4.05141       -0.415741         6.41483
LJ           2.23592         3.37803        -5.46371
LJ           2.82451          3.3648        -4.26926
LJ          -6.10722        -5.02233         5.29313
LJ           5.50759         2.04861         2.04645
LJ          -3.07892         5.54953        -6.05986
LJ          -2.24828         4.16158        -5.50097
LJ           1.04829         1.56001       -0.451155
LJ           -1.7318        -4.99664         1.58087
