108
#Comment!
LJ          0.844958       -0.200461         6.39177
LJ           2.93608         5.54695         5.89814
LJ           2.07116        -1.50849         1.88992
LJ           6.33872         2.07792        -2.24736
LJ           5.71562         5.68705         4.43146
LJ           1.91751        0.890738         1.06093
LJ           3.24532        -4.48913        -4.98902
LJ            3.0254        -1.86977         3.10249
LJ          -3.27459      -0.0828766        -5.24032
LJ           1.03571         3.76241         1.65925
LJ          -4.75622        -2.55629         4.57343
LJ            1.9236         -4.8942       -0.983782
LJ         -0.104344        -5.75448          3.4214
LJ          -6.44904         1.62626        0.576829
LJ          -3.11127         4.82881         2.07129
LJ          -3.19884         4.19816        -1.52122
LJ           2.33396         1.30809        0.344652
LJ          -6.18817         3.18185       -0.303806
LJ           4.04716        -3.38114        -5.93114
LJ          -3.24204         -0.7352         2.86927
LJ          -2.36164        -6.31087        -5.83948
LJ         -0.481399         1.72531        -1.29958
LJ          -5.59243         2.14614         2.36388
LJ          -5.34364        0.337873         2.37558
LJ           -4.0502        -1.65878        -3.61255
LJ           3.37006       0.0286058         4.48509
LJ          -2.56361        -5.95395         2.60979
LJ          -3.05633        -5.29649        -1.96479
LJ        -0.0281245         5.03579         3.18687
LJ           5.25711         4.46626        -5.71277
LJ           5.60665        0.964131         5.27781
LJ           4.38137         5.96887         0.24498
LJ           1.01937         2.95579       -0.172826
LJ           4.58854         3.32427          -1.486
LJ         -0.563987        -2.57825         -2.8286
LJ           6.22249        -5.34429         5.89218
LJ           1.80435       -0.992098        -2.82085
LJ           6.03473        0.707509         1.40436
LJ          -5.78779        -5.83706        -1.95262
LJ          -3.68426         2.52166         2.33088
LJ          -3.55458        -4.72882         4.64024
LJ           3.61231         2.85259         6.37364
LJ           3.34665        -2.32705        -4.12918
LJ           5.37921        0.871235         1.82819
LJ          -1.12188        -5.08801         5.87154
LJ            3.1196        -4.68995         6.41802
LJ           2.02167      0.00873796         6.09293
LJ          -6.31874        -2.36142         2.17844
LJ           6.04606       0.0734298         2.37446
LJ          -4.70553        -4.79271        -1.92831
LJ          -0.29682       -0.668061        -5.69904
LJ          0.420923         3.34341       -0.120036
LJ           3.34051        -2.64797         -3.3346
LJ         -0.591566        0.855341       -0.245862
LJ          0.421455        -5.36384       0.0176837
LJ           5.78838         4.45964        -3.92723
LJ            5.4877         3.33998        -5.88361
LJ         -0.659617        -2.61538        -6.42779
LJ           -3.6197       -0.249081        -3.45683
LJ         -0.385849         1.24392         2.08063
LJ           4.69348        -3.69568         3.11258
LJ          0.912913          0.5154         2.20576
LJ          -5.63144          -3.879        -3.00485
LJ           1.13165         1.15701         -6.4074
LJ           2.22223         6.16486          5.9711
LJ          -4.99627          -4.461         3.06743
LJ         -0.365592          3.7545        0.210984
LJ           5.60493        -1.30023        -6.09388
LJ          -5.13016        -5.62719       -0.986317
LJ        -0.0461104        -4.75432        -2.42841
LJ            3.8659         4.76579         5.45183
LJ          -5.53405         4.06065         0.52241
LJ           6.31591        -6.05195         4.14037
LJ          -2.29657        -6.17776       -0.778599
LJ           1.50121         6.37801         -5.9459
LJ          -3.71999        -6.20585        -5.41112
LJ           3.09184        0.107567        -5.55156
LJ          -1.89751        -3.77952         3.62219
LJ          -4.03595        -3.51469         5.80527
LJ          -1.46935        -2.33506        -4.56472
LJ          -4.49601       -0.232387         5.92218
LJ            4.3264         5.18634        -1.74094
LJ           4.63178        -4.40947        -3.33544
LJ           -4.1419        0.562725         0.36638
LJ          0.137314        -4.62266         5.64497
LJ          -1.16095       -0.755193         5.33324
LJ          -5.24315         4.75566        -4.63025
LJ          -4.96518         4.77481        -1.33283
LJ           6.42345         2.70101        -3.56797
LJ         -0.597544        0.107535        -6.12368
LJ           1.72284        -4.05552        -3.40853
LJ          -1.55854         6.38207         3.66302
LJ          -4.46071         4.31717       -0.239342
LJ          -3.46479         4.51183         5.64563
LJ           3.62373       -0.484166         1.81344
LJ          0.693105         3.73372         2.27349
LJ         -0.711859        -3.74153         -4.8823
LJ           5.19536         5.07647         6.42282
LJ            3.0509         4.67519       -0.079961
LJ          -3.37744         3.98976          2.7486
LJ          -4.52325       -0.748946         4.18063
LJ           5.10015         5.50095        -1.26922
LJ           3.62574        -6.14194         1.46838
LJ           4.97847         5.58657        -4.51856
LJ          -4.58414        0.188986        -3.11158
LJ          -2.18389       -0.219662          1.3342
LJ            4.4392        -4.45485         4.43488
LJ          -5.79943        -2.15925         2.90189
