108
#Comment!
LJ           6.26222         2.36578         1.05199
LJ         -0.389383        -1.69479        -1.34466
LJ           6.30594         4.93863        0.503049
LJ          -1.48957        -3.50026         5.31805
LJ           2.07249         -6.1733         4.52553
LJ           5.14483         1.16657         5.03408
LJ          -1.97183         5.47999         0.85711
LJ         -0.604051        0.956932        -4.78005
LJ           2.93065        -2.76117         5.76069
LJ          0.995075        -6.05185        -6.09666
LJ          0.590284        -6.37065         6.10549
LJ          0.995287        -5.97078        -1.27528
LJ         -0.947781       -0.210571        -5.34615
LJ          -1.81023        0.230488         5.37985
LJ          -6.32343        0.508876       -0.132699
LJ          -2.91362         1.90506        -5.69206
LJ           6.40811         1.77947         5.42172
LJ           1.79408        -3.19606         6.36474
LJ          -2.81065         1.24171         4.88275
LJ           1.67498         2.83008         3.36316
LJ          -3.70354        -5.35782        -5.09318
LJ           1.83858        -3.46934         2.34632
LJ          -2.36649         -3.4457         1.69796
LJ           4.12701        -4.12643         5.56114
LJ          -2.41631         6.21306        -2.57933
LJ           1.22159        -1.04711         3.74908
LJ          -1.76583         2.96175         1.66493
LJ           2.86392         3.97327        -3.73414
LJ           6.13362         3.14285        -6.31845
LJ          -5.13173        -3.80462         6.44668
LJ          -4.68152        -2.60843        -3.76524
LJ          -1.70043        -1.49294         5.64828
LJ          -4.70611        -1.39036         2.58896
LJ           -4.6148         2.54071        -6.06262
LJ          -3.21267         4.05816       -0.798561
LJ         -0.866787        -2.47206         4.71773
LJ          -4.59181        -4.86737         1.12762
LJ         -0.973684        -1.94766       -0.966576
LJ         -0.120678         5.47898        0.377835
LJ           6.09613        0.191391         5.67483
LJ           4.50866        -1.06679        -4.38341
LJ          -4.22956         3.45497        -2.95322
LJ           4.41724         6.41643        -1.09026
LJ           3.19965        -4.10621         4.25349
LJ         -0.915733        -6.26603       -0.664621
LJ           1.91252       0.0909834        -5.75116
LJ           5.96658        -2.87206        -1.28069
LJ          -0.79744         4.62619         3.48104
LJ          -1.38669        -4.81721         -1.5318
LJ           3.21091        0.264151       -0.286671
LJ           5.65561         3.87892        -4.64114
LJ           -2.0904        -0.54033        -0.43698
LJ          -5.49175         1.58779         -1.8272
LJ           3.69921         1.73703         3.58111
LJ          -1.02664         3.69895        -3.92507
LJ           4.41881        -4.34587         3.84428
LJ           -2.5067         4.58824         6.19877
LJ           3.53773        -1.91261        0.198542
LJ           5.34479       -0.634236          2.6084
LJ          -4.49623         5.02658         6.06326
LJ           1.65812        -1.26878        -1.03617
LJ         -0.748537        -5.18934         5.51325
LJ          -4.97434        0.955712         3.82861
LJ           4.20139         4.38072        -2.04026
LJ         -0.805575        -5.77862        -5.48005
LJ          -4.56232          6.4522         5.44859
LJ          -4.35464        -4.25723          -6.357
LJ          -4.24089         3.76578         2.86676
LJ           6.18088         -5.5042        -4.66535
LJ          0.792854        -6.13129        -5.37327
LJ           3.01076         -5.8338         4.68665
LJ         -0.497513        -4.17328         6.41144
LJ         -0.744702        -3.72275       -0.577458
LJ           4.55649        -4.49567         -2.1347
LJ          -2.82674       -0.885362         2.84528
LJ          -1.79497         1.37891         -3.4211
LJ          -5.76118       -0.569366         3.54675
LJ           3.36355         5.01758         1.58734
LJ            1.7484      -0.0273129         4.03965
LJ         -0.913552         6.12775        -4.61094
LJ          -1.89708         4.19963        -1.35951
LJ           5.19613         2.23843         6.03023
LJ           1.27163         2.47749       -0.707295
LJ         -0.562865        -2.07085         4.00918
LJ         -0.452974        -4.02866        -4.47253
LJ           1.31886        -2.08669        -4.12146
LJ          -1.67078         4.06483         3.52359
LJ          -4.67766      -0.0319299        -6.26989
LJ          -6.42147        -5.60488         1.88647
LJ           3.89623        -2.30059         3.84336
LJ          0.578122        -2.04966         5.53562
LJ           3.90821        -1.68719         1.61638
LJ           4.20754       -0.812514        -3.51298
LJ           4.91359        -1.33801          5.0921
LJ            2.3312         6.21311         1.49115
LJ          -2.56359         5.63161         1.85264
LJ           1.43754        -6.11441         1.53209
LJ          -1.00043        0.879997         3.22075
LJ          -1.50484         3.75097         2.34678
LJ           3.62843         5.41976        -5.57429
LJ          -4.01591         2.17262        -4.83907
LJ          -5.52775         6.14173        -2.08791
LJ          -1.65387         1.19699       -0.478951
LJ          -1.64362        -1.21976         3.58458
LJ          -6.11842         4.80464         3.87823
LJ            -1.211        -0.76339        -2.60167
LJ          -3.70744         5.75367         1.12028
LJ         -0.670789        -5.61458        -6.26209
