108
#Comment!
LJ          -5.41615        -4.99616         1.23075
LJ           2.08251        0.163999        -5.10362
LJ           5.65115        -1.22195       -0.546118
LJ          -2.26109         3.01376       -0.156534
LJ          -6.01759          -3.719         1.26017
LJ           4.22624       -0.605157         -1.3199
LJ         -0.697612        0.281333        -3.87572
LJ           -3.1614        -1.66351        -4.98417
LJ           3.41501         1.83981         -5.9703
LJ          -2.70126         4.82305        -1.10945
LJ           5.69092       -0.970979         6.17076
LJ           1.44738        -1.06791         1.52703
LJ           1.13399         2.38498        -2.48183
LJ          -6.12776        0.717107       -0.879515
LJ           5.51175         3.93394        0.815467
LJ          -5.61978      -0.0348013        -2.98234
LJ           2.46659         1.39261        -3.86927
LJ          -5.02319        -6.31217        -1.14884
LJ           1.64593        -1.53358       -0.263974
LJ          -1.19904         2.33038        -6.05665
LJ          -1.35072         4.37186         1.45155
LJ          0.607046         4.50111         4.65286
LJ          0.864157        -1.21072        -6.19552
LJ          -5.75574        -5.99175        -4.73267
LJ          -2.53458        -5.42769         6.12757
LJ          -1.94975         1.45332         1.65716
LJ           -3.6042        -2.65793         1.62239
LJ           3.98157        -2.76039        -2.90892
LJ           2.30199         2.72531         4.90531
LJ          -2.86639         4.31602         3.70297
LJ           6.41336         2.25704          2.9265
LJ           5.06437         5.10393          1.2451
LJ           1.06077        -5.45453        -4.53792
LJ            3.6669        -4.48031         -2.1386
LJ          0.782662         1.35021        0.804058
LJ          -2.87691         1.20122         6.40683
LJ          -1.03343         1.00276         3.32613
LJ           1.58237       -0.468902        -5.39308
LJ          -1.29688         3.52647        -3.35893
LJ          -6.37378        -4.35445        -2.26685
LJ           4.46008         1.52789        -3.53866
LJ           6.08037        -3.15031         3.29533
LJ            6.2464         5.54144         4.22812
LJ           1.06794         2.91181       -0.671288
LJ          -1.74221          1.9488        -6.06119
LJ          -2.81571        -2.22836        -3.50756
LJ          0.769008          5.7125         3.54974
LJ          -3.81487         5.67652         4.17087
LJ          -5.82111         2.85225         3.90228
LJ           3.49622       -0.691616         3.23511
LJ           1.17654         -6.0088         2.70153
LJ          -6.43536         6.05277       -0.480104
LJ          -3.57041        -2.00411       0.0482699
LJ           1.56507         -4.0885        0.385322
LJ           6.45272        -1.04637        -2.23658
LJ          -1.68086         2.81608          4.6993
LJ           3.25431       -0.140867         2.36075
LJ          -0.82416        0.502583       -0.294054
LJ           2.37331        -0.13848         6.06785
LJ          -2.27157         3.01157        -2.50023
LJ          -1.13616       -0.335049         4.94821
LJ          -6.17384         5.81578        -3.03897
LJ           2.28975         1.70657         5.74698
LJ          -3.15426         3.39422        -3.31477
LJ            6.3611         -5.8176         2.45277
LJ           1.53501         2.10781        -4.64299
LJ           2.28187        -1.69798          4.3796
LJ           1.64737        -5.43574          -5.459
LJ              -3.9         1.38518         3.71119
LJ           1.99683        -4.95431         -5.8834
LJ         -0.050071        -4.47843         5.42618
LJ           1.65969        -1.86252           2.418
LJ           4.04044          2.5766          2.7074
LJ         -0.751681         3.90261        -4.49379
LJ           1.89832        -3.97825          5.2138
LJ          -5.17395        -2.05754       -0.563057
LJ           5.15199         4.45685         5.30986
LJ           5.98821        -2.09499         3.32656
LJ          -1.87976        -1.29691       -0.214637
LJ          -5.14379         3.78089         5.87424
LJ           1.38083         5.31046        -4.11475
LJ          -5.91886       -0.719224         2.16403
LJ          -1.11318        0.238885        -1.62557
LJ           1.74808       -0.889554        -6.35764
LJ          -3.20169      0.00836539        -1.79414
LJ           5.29181        -6.15839         -3.4485
LJ        0.00836097        -1.94561        -1.44971
LJ           4.51432        -2.89165         3.66503
LJ         -0.552995        -2.31792        0.380057
LJ          -5.59686          3.1018        -0.52985
LJ          -2.16778         3.85599         0.57605
LJ           6.06139          2.9837         4.40417
LJ          -1.31305         4.61906        -4.34866
LJ          -4.72374        -2.74674         1.16692
LJ         -0.923552         6.04323       -0.962495
LJ           -4.7432         6.00463        -4.55444
LJ           4.04776         5.74926        0.841571
LJ           5.63014        -5.37502         6.29289
LJ           4.95277        0.211999        0.329725
LJ           1.05639         3.14224         2.26342
LJ           3.30412       -0.369564         3.45016
LJ          -5.82475        -1.01909       -0.472172
LJ           1.56386        -3.02344       -0.284313
LJ          0.217228        0.578169        -5.41299
LJ           4.52939         4.14349        0.245489
LJ         -0.753729        -3.70036        -5.24676
LJ           4.73322        -5.26177        -6.34765
LJ           6.16287        -3.68308         1.61769
