108
#Comment!
LJ           2.50293        0.489436       -0.857678
LJ           4.10584        0.932123         -3.5248
LJ           4.28386        -3.58501         1.59968
LJ           4.66715        -2.25373        -4.83074
LJ          -1.11302        -4.61005        0.339389
LJ           5.95373        -2.79705      -0.0709031
LJ           5.50594         3.08354        -2.73426
LJ          -2.80082        -3.13778       -0.108068
LJ          -3.29706        -4.10024        0.331626
LJ          -6.19169        -1.00392        -3.31428
LJ          -4.16441         5.48681         -3.1901
LJ          -3.51546         5.04658         3.89575
LJ           3.23257        0.488099        -1.29157
LJ           2.16435         3.48246         5.45595
LJ           4.33055        0.716494        0.207417
LJ          -5.99971         5.69865        -1.02116
LJ           3.29737        -1.80426        -2.32076
LJ            4.5349         2.69844         -1.4163
LJ          0.143741         3.93687        0.614011
LJ           4.87652         3.39605        -6.43542
LJ          0.985089         5.36195        -4.32875
LJ          -2.79964         2.71319         3.79215
LJ           3.82891        -4.65093         -0.9478
LJ          -3.63799        0.542557        -5.87059
LJ           6.01059         4.81581         -5.6417
LJ          -2.97807         5.93986        0.327431
LJ          -1.26325          -3.855         -1.4489
LJ           5.76184         4.00861        -4.33997
LJ          -3.82235        -1.23343        -4.43796
LJ          -5.24561        -5.86427          6.4342
LJ          -4.22374        -2.84653          5.5078
LJ           4.81368        -6.01235         2.63461
LJ           3.02176         2.73809        -5.62766
LJ            4.9376        0.384202         4.59547
LJ           3.05742         4.76702         4.33671
LJ         -0.410601        0.755825         2.16479
LJ          -4.49026       -0.963182      -0.0859424
LJ          -5.14898       -0.878063        -3.45837
LJ           6.45698         -1.3114        -3.45765
LJ           1.06216         2.12069         2.43367
LJ           4.73874         5.74489        -1.45517
LJ           6.44951        -5.37809         5.87921
LJ          0.791122        -4.63744        -3.91932
LJ          -3.55776        -5.92639        -3.99193
LJ          -4.82724         3.41912         3.78971
LJ          -3.61289          4.7856        -4.39501
LJ           5.59265         3.17732         1.02427
LJ           2.70273          5.7359       -0.824581
LJ           6.35578        0.283871         2.18392
LJ          -6.00147         3.83653        -5.83525
LJ          -2.82563         -3.0346       -0.687641
LJ          -1.85738        0.950035        -5.89197
LJ          -1.07747         5.88346         3.22918
LJ          -3.25245        -5.39694           6.147
LJ            4.7354         5.03742         6.41113
LJ           1.03344         4.33658        -3.51232
LJ          -6.15206         6.16686      0.00805259
LJ          -3.44583         3.50603         3.67304
LJ           2.01682        -3.68615         4.75946
LJ           2.82194         3.52035        -4.19155
LJ          -6.24659         4.81391        -4.45212
LJ           4.49287       0.0655743        -4.68602
LJ          -2.20593        -1.94659         5.18995
LJ          -2.58954         5.91677        -2.05364
LJ            -4.193        -3.21427         6.08986
LJ           6.43084        -5.03829         5.98286
LJ          -5.88004         -5.6747         5.94584
LJ           4.67518         2.96867        0.185211
LJ          0.734722         3.90291        -6.16476
LJ           5.55279          1.7433        -4.29978
LJ           5.35566        -2.97565         1.33551
LJ           4.74877         6.30764         -5.7844
LJ           4.25051         1.58461      -0.0112129
LJ           6.03586      -0.0379283        -4.03943
LJ          -3.59875       -0.499568        -0.85337
LJ          -6.30096         5.90333        -1.32151
LJ          -3.43132        -6.26653        -1.47499
LJ           2.11689        -1.80406         2.11721
LJ           2.54185        0.490686        0.790164
LJ           5.84762         -3.2352          -3.197
LJ           1.70151         -5.8589        -3.15071
LJ          -5.10238         6.45355         1.61738
LJ          -3.24696      -0.0416823        -2.42835
LJ            3.9908        -4.09207        -1.26657
LJ           6.04942        -4.45222         -4.1949
LJ          -5.73386         3.12021         4.26613
LJ           5.42537        -3.38582        0.111686
LJ          0.418801         4.89278         2.88754
LJ        -0.0881166         4.59958         1.80778
LJ           1.30972         3.27003         5.07837
LJ           1.86879        -3.73801        -4.39955
LJ             6.336        -5.63138         4.98079
LJ          0.521227         2.36214         2.88598
LJ           4.73821        -4.99271        -2.00156
LJ          -3.41853         2.88537        -4.09195
LJ          -2.36317         4.95787        -3.62137
LJ           -2.4598          2.1773         4.67911
LJ          -1.82082        -4.93381       -0.837974
LJ          -3.11457         3.32957        -2.42744
LJ         -0.509165        -1.27722         -1.7357
LJ          -5.62037        -4.73891        0.322306
LJ         -0.754235         -6.1366        -4.45286
LJ          -5.39083        -3.47792        0.122428
LJ           0.61428        -3.37607        -5.38565
LJ           6.17075        -1.99513        -1.02438
LJ          -3.35008        -5.30684         5.18739
LJ           5.79268         2.59286        -2.38507
LJ           4.60134         1.97232        -5.33043
