108
#Comment!
LJ          -5.25424         5.98514         4.06244
LJ          0.770039        -1.97926        -2.47286
LJ           1.27697        -1.09493        -5.93344
LJ           5.21996         3.44103         2.15658
LJ            3.8447         4.03599       -0.145148
LJ           3.12217         3.26577        -1.61968
LJ          -4.46517         5.31762         0.70041
LJ           6.26201         2.94356        -4.30252
LJ           3.75525          3.6376        0.999603
LJ           -4.2021         -3.2437         3.41421
LJ          -6.41262        -5.76679       -0.445945
LJ           2.33069        -3.48844        -5.11881
LJ           4.39565        -5.39741         4.38786
LJ           -1.8925         4.04527        -5.16068
LJ           5.63342        0.724526         1.07819
LJ           1.50387        -2.26815         6.30872
LJ          -2.42107         6.11818         4.64622
LJ           -4.2587       -0.913399         1.87396
LJ           2.64905        -4.05992        -3.86369
LJ          -4.37804           5.824        -5.37507
LJ          -1.75707          -3.041         5.28175
LJ           5.87957        -1.07267        0.856796
LJ           -5.1928         5.84832         5.81422
LJ          -2.84377         3.69155         2.37402
LJ          -2.14229         5.99204         4.79219
LJ          -5.84987         5.13724       -0.874081
LJ          -4.43493         2.63988         3.86047
LJ          -3.26249         5.50696        -4.36054
LJ        -0.0343885         1.69901        -3.40362
LJ         -0.447662        -3.69549          -2.728
LJ          -2.57239         3.15984        0.208183
LJ         -0.476028          2.0034        -4.53831
LJ          -4.33869        -6.01092         -3.4222
LJ           1.76939         2.82879        -2.68997
LJ           3.82944        -1.18715         5.53681
LJ          -3.13187        -5.75957         6.00485
LJ            4.9528        -1.00832        -5.88961
LJ         -0.593116         5.42669        -4.68599
LJ          -1.99423        -5.92469        0.289108
LJ         -0.648303         4.01869         2.47076
LJ          0.102861        -0.21571        -1.97971
LJ          -2.23073         2.21186        0.377736
LJ          -3.26307         3.81609        -5.78365
LJ          -3.56204          4.2495        0.126948
LJ           3.91742        -3.16604        -4.04987
LJ           4.78193        -1.29694         1.26293
LJ           2.05249        -1.61467        -5.94563
LJ            5.0879         1.52839       -0.287883
LJ           5.88578        -2.87194       -0.264817
LJ          -2.86305        -1.37711        -4.71616
LJ           3.12353         3.47919         3.12369
LJ           4.42707        -1.08252        -4.74184
LJ           2.00574        -4.72519        -3.08087
LJ          -1.94772       -0.709345         6.05778
LJ          -6.16089        0.119914         2.98513
LJ           2.42917        -4.28442         1.03341
LJ          -0.62016         3.68166        -4.52953
LJ          -4.45042        -1.87848       -0.598514
LJ          -1.23035          5.5542        -1.59612
LJ         -0.807217         3.63548         5.60378
LJ         -0.426217        -3.39546         4.75764
LJ           1.28831        -1.70899         3.68728
LJ          -3.54921        -2.50816      -0.0976272
LJ          -5.75924      -0.0625901        -3.37987
LJ           5.05721        -2.15337        -5.93559
LJ           3.47944         4.85145         4.28905
LJ           2.77566        -3.63129        -5.92621
LJ           -1.6299         5.04511          6.1414
LJ          -5.58707        -2.55218        0.928513
LJ          -4.41075       -0.196844         4.96898
LJ           2.02661        -5.30437         -2.8282
LJ           2.85915         2.52442         2.11126
LJ          -4.86279         2.31558         5.17933
LJ          -4.71333         2.97817        -3.50545
LJ           3.81188         2.75026        -1.46475
LJ           2.47438        -2.04754         -3.7454
LJ           1.11232        -2.95787          6.2935
LJ          -3.41812       -0.953241        -2.39312
LJ           2.14549         2.02322        0.217359
LJ           1.94484         6.19957        -2.65637
LJ          -5.02544        -3.00256        -4.05277
LJ          -4.77486        -5.88989        -4.84196
LJ          -5.95001         1.76181         2.61304
LJ          -2.55082         4.72028         4.54843
LJ           2.11613          2.9865         1.02109
LJ          -6.30922        -3.99649         2.55833
LJ           3.90245         5.00551         2.76758
LJ           6.00725        -5.07577         5.77489
LJ           1.71259         1.01414         -4.4196
LJ          -1.00873        -3.06336         2.97074
LJ          -2.81645         -2.6365         1.10972
LJ          -5.85099        0.792779         6.15906
LJ            1.9543         -4.6326         4.96406
LJ         -0.518689         4.21153         2.57925
LJ          -5.54963        -2.80367         5.73211
LJ           -0.6954        -5.38147         -3.0304
LJ          -6.31026         2.57083        -2.18613
LJ           5.93184        -4.26407        -4.16243
LJ           1.22983         3.27153         2.87057
LJ          -5.41443        -4.91138         5.12404
LJ           4.30679        -2.00262         2.39085
LJ           2.78328         5.62825           6.282
LJ           2.72245         5.91627         5.44092
LJ           6.37877        -5.16806         3.13542
LJ           4.06553         2.46827     -0.00334932
LJ          -1.72261         5.38259        -1.42257
LJ           1.25352         0.66455         4.33932
LJ           2.36911        -2.28442        -2.34681
