108
#Comment!
LJ           4.68687         5.42054        -4.14988
LJ          -4.28487        0.349423        -3.95578
LJ           -3.9531        -1.27111       -0.377257
LJ           1.58845        -6.40813         2.91016
LJ         -0.618197        -1.44155        -3.85473
LJ           4.59361        -6.17212         3.85133
LJ         -0.991466        -2.57853        0.996124
LJ        -0.0531079       -0.586286         -3.3322
LJ          -5.96772        -2.48119        -5.95507
LJ           1.54305        -2.92359        -4.15034
LJ           2.79646         6.07229        -5.82292
LJ           4.71466        -5.16454        -1.64776
LJ           -5.3591       -0.744882       -0.476254
LJ         -0.659886         3.94927         -4.0952
LJ          -1.30862         1.95352        -1.48408
LJ          -4.11363         5.11332        0.127888
LJ           1.20852         -1.5276        -3.99371
LJ          0.351693        -1.31908        -5.88452
LJ          -2.02092       -0.667095        -2.05009
LJ           2.24396       0.0708312       -0.577371
LJ          0.417914        -3.49323         -4.2808
LJ           1.84438        -1.94399        -5.97417
LJ           3.75586          2.0339         2.16474
LJ          -6.35685        0.237943         2.54974
LJ           6.43624       -0.601868        -6.17652
LJ          -4.41632       -0.788067         -5.6771
LJ          -4.95222        0.164896        -5.97195
LJ          -1.79826         2.77857        -5.93636
LJ           6.19283         1.66705         5.52936
LJ           6.19068         3.57256         4.08092
LJ         -0.892767         3.49811        -3.09083
LJ           1.84366        -2.11012        -4.75775
LJ           4.18406        0.194605        -4.81488
LJ         -0.125626         3.39077        -5.07309
LJ           1.01285        -4.59907        -4.36272
LJ            3.4871        0.446384        -2.15668
LJ          -1.85144         5.56741         2.99983
LJ          -0.08526        -1.59578       -0.316703
LJ          -2.06622         4.40914         1.14006
LJ          -3.24342       -0.226917       -0.108213
LJ           1.55616        -2.03431        -0.68916
LJ          -3.57619        -1.96599        -4.70319
LJ          -5.32932        -5.87999         1.09171
LJ         -0.680842        -3.31255      -0.0175704
LJ          0.058468        -2.54166        -1.12316
LJ           -5.4701         1.12341         1.81581
LJ           2.54588       -0.632899        -2.31792
LJ          -2.38138        -2.33513        0.794923
LJ          -6.07073        -2.40217        -3.78506
LJ          -5.49153        0.304576       -0.870711
LJ           6.45993         2.02937         1.91105
LJ           4.42307         1.54358         3.31367
LJ           2.68538         4.01572        -6.13382
LJ          -3.53916         3.30182       -0.297954
LJ         -0.699049         2.77591        -2.29533
LJ         -0.439055        -2.68652         4.69047
LJ          -1.96728        -1.48394         6.27291
LJ           5.14437          1.1174        -2.85558
LJ          -3.14955        -3.66857        0.528928
LJ          -4.09787       -0.365353       -0.996768
LJ          -4.44298         5.51228         4.01348
LJ          -2.16751         3.96581        -4.88007
LJ            3.3564        -5.37266       -0.597997
LJ           -4.5061        0.472617       -0.624278
LJ          -3.39387         2.21095         0.73166
LJ          0.138102         5.01394         1.63246
LJ          -2.57855        -5.27094         -1.0221
LJ           1.82503        0.676669        0.560797
LJ           2.53059         -1.2982        0.273558
LJ           1.36732         4.68749         1.91695
LJ         -0.966705        0.723314         1.54884
LJ           2.40468          -4.844       -0.133361
LJ         -0.911588         -1.4877        0.402176
LJ          -1.43734        -0.70782         1.34879
LJ          -3.99018          2.2746         4.05883
LJ          -4.21906         -6.0023        0.375673
LJ           5.66961        -6.06435          6.2025
LJ          -1.89765        -3.25382        0.960256
LJ           1.15463        -4.22315         5.59958
LJ          0.922453        -3.21321        0.840211
LJ          0.535131         4.19633         3.60607
LJ           3.85489       -0.985453        -2.22361
LJ           1.91713         -3.1312       -0.896623
LJ           0.64568        -3.34025         2.05703
LJ           -5.0085        -4.02678        -1.47015
LJ          -4.48451         1.23364        0.681964
LJ          0.134473         1.03493        0.851354
LJ          -1.59348       -0.993318        -1.01929
LJ          -6.39639     -0.00158207       -0.421419
LJ         -0.292085        -1.44428         4.09595
LJ         -0.399056         -2.1125         2.98471
LJ           4.85962       -0.746713        -4.10145
LJ          0.871758        0.193127         -1.2601
LJ           3.20635         2.05401        -1.72479
LJ           4.51967         3.21961        0.538801
LJ           2.77992       -0.271548        0.722894
LJ          -5.12672       0.0894127        0.251819
LJ          -3.20882         2.02693       -0.473739
LJ         0.0319743        -2.42795        -4.15644
LJ          -3.76466         2.95971        -1.34473
LJ          -1.26026        0.383984         2.61571
LJ            2.0797         -5.9375       0.0648995
LJ          0.530187       -0.761727         3.85458
LJ         -0.131979        0.489521         2.31288
LJ           3.80854        0.215407         1.44806
LJ            2.7604        0.935758         1.90733
LJ           3.16996         1.13332        -2.93849
LJ           3.75883         0.75061         2.48057
