108
#Comment!
LJ         -0.053679        -1.32168        -5.84646
LJ          0.860327       -0.946405        -2.46168
LJ          -3.41893         3.27881        -6.19149
LJ          -3.28547         3.24332        -2.95441
LJ           3.74398        -4.22525        0.535866
LJ          -4.70547        0.713075         1.10156
LJ          -4.21507        0.680248         0.29891
LJ         -0.218962       -0.190999         3.69303
LJ        -0.0702434        0.083888        -5.31308
LJ           4.15152        -2.13258         1.84822
LJ          0.334957        -1.87409        -5.57534
LJ           1.58028         4.65982        -5.53065
LJ          -3.88351          1.3208        -1.00872
LJ           2.44829        -1.48545        -3.82756
LJ           4.96983        -2.60172         4.22219
LJ           2.47584       -0.100431        -3.38305
LJ          -5.05167         1.09906         4.30301
LJ            1.3682         3.07634        -3.89309
LJ           4.11483         1.92824         2.18424
LJ           1.70504        -4.23436         2.43403
LJ          -2.58154         1.88234        0.840998
LJ          -4.77692        -4.19607        -2.75697
LJ           3.72183        -1.79659        0.405746
LJ           6.01273         2.25487         5.05936
LJ          -4.65433         6.29271       -0.938823
LJ         -0.895721        -2.90014        0.424911
LJ          0.273701        -1.70545        -2.10023
LJ          0.769234         0.97877         4.86498
LJ        -0.0950951         1.64304         -4.8991
LJ          -3.73343         -3.9866        -4.15868
LJ          -5.13886        -2.81236         -5.6584
LJ          -3.12964        -1.98129         2.33216
LJ          -2.69013         1.05844        -1.35665
LJ           -3.6981           4.707       -0.304149
LJ           -4.7462         1.04124         3.15589
LJ          0.908278        -1.90341        -2.18326
LJ           5.03886         1.57109         1.31173
LJ          -5.55945         3.20378        -2.33615
LJ           4.75733        -4.09232         1.97357
LJ            5.6018         4.05008      -0.0334875
LJ           5.49156        -5.39324         4.35474
LJ          -1.91415      -0.0447647         2.64942
LJ           -4.4067         4.36212       -0.591839
LJ           1.74305        -1.86095         1.79283
LJ           2.83242        -5.50707         -6.1253
LJ          -1.74297          1.7491        -3.05214
LJ           5.95259          5.6069          3.5696
LJ          -4.02551        -5.14939         1.43908
LJ        -0.0290438        -5.37666         5.65122
LJ          -3.16714         5.40113         2.11472
LJ          -3.65359         4.98206        0.569515
LJ           5.28325        0.951592        -4.58718
LJ           5.52768        -6.05096         -6.0848
LJ          -4.18556        0.237641        -5.15306
LJ          -1.24275       -0.982497         3.04969
LJ          -3.66502       -0.919281            5.53
LJ          -1.74409        -1.88547         2.88299
LJ          -4.71195      -0.0138753        -3.12886
LJ           4.51045        -6.00034       -0.561653
LJ         -0.190205        0.239958        -6.15083
LJ          -5.01531        -2.67379          3.4503
LJ           6.03858        -0.43052        0.147805
LJ        -0.0731772         1.55761        -4.94407
LJ          -6.16613        -5.44437         3.45675
LJ          -5.91565        -1.10112        -1.76052
LJ          -3.83489          1.2534         5.38237
LJ          -1.90387        0.232269         3.49175
LJ           4.74896        -0.31733        0.956228
LJ         0.0466746         2.61664        -2.35731
LJ           5.33327        -1.30651        -3.51374
LJ         0.0592019       -0.798548       -0.650114
LJ         -0.703967        -3.40509        -1.19912
LJ           -4.2593        -4.37928        -4.00642
LJ          0.453556        -4.26709        -6.13397
LJ           2.19947         2.02337        -3.14103
LJ          -3.83013         1.06586       -0.528536
LJ           3.08959         6.45049         5.31365
LJ          -1.41495         2.47305        -5.40832
LJ           5.71772         3.64815        -4.11074
LJ          -5.88813         1.58928        -1.50984
LJ         0.0679542         3.66725         2.99649
LJ            4.1062        -3.71638       -0.301603
LJ          -1.74738        -5.01956       -0.378647
LJ          -1.33548         -1.8887       -0.887495
LJ          -5.46656         1.89994        -4.19976
LJ          -3.71472         1.81121        0.253702
LJ          -3.80697        0.344776        -2.51637
LJ          0.313973         1.85964        -1.34708
LJ           0.22642        -5.36517         -3.1959
LJ           5.37059         3.26766         2.52274
LJ           3.85961        0.700606        0.349571
LJ           5.08554        -1.95043         -1.1702
LJ           5.38399         4.55038        -5.72065
LJ          0.952465       -0.740721         0.72488
LJ          0.581249        -6.22586        -3.10537
LJ           4.56271         4.20476        -2.33477
LJ          -5.25028        -4.23314         4.60358
LJ           1.15105         5.15218        -5.33347
LJ          -2.26144         3.61759      -0.0430269
LJ           6.06161        0.232558         -2.4204
LJ           2.85517        -3.85449         5.86731
LJ           5.97787         5.64636         -2.4018
LJ          -4.43661         4.64008         2.66622
LJ          -4.78066        -4.18543         5.24978
LJ           5.37638          1.4201         2.72157
LJ          0.217276         2.48711        -6.16248
LJ           -4.3269         -1.7905         4.50952
LJ           -4.5104         3.00882         3.79313
