108
#Comment!
LJ         -0.410259       0.0528644         2.04588
LJ           1.91923       -0.292858        -5.00825
LJ           2.29437        -4.59684        -4.91798
LJ          -6.11022        -6.16078        -4.98545
LJ           2.44237        -2.22643         2.05294
LJ           5.29637        -5.55036         1.86573
LJ          0.882802      -0.0575859         1.62426
LJ          -6.02497         5.58049         2.86759
LJ          -3.70575        -5.37189       -0.957422
LJ           1.32232         2.87836         -3.4292
LJ           1.91075        -2.91014        -5.02443
LJ          -5.48421        -1.15743        0.561681
LJ          -6.24914         3.57552        -1.34959
LJ         -0.380127        -1.30398        -4.44497
LJ           5.06906         4.39392        -5.29663
LJ           6.07608         3.60638        -6.37659
LJ          -4.22682         3.54059       -0.350663
LJ           1.94873         5.37813        -3.63859
LJ          -5.05523         -4.9641        -5.98272
LJ          -3.42599        -3.43207        -1.44431
LJ          -4.42164         5.56094         -3.2191
LJ           4.64088         3.97018         5.14369
LJ           3.05453         2.55817         6.40335
LJ            4.4292         3.08699       -0.696572
LJ          -4.56441        -2.14135        -1.33041
LJ            4.0192         2.52018        -4.14619
LJ            4.8246         3.61437        -2.52183
LJ          -5.09411        -5.35143       -0.315802
LJ           4.41531        -1.43978        -1.86732
LJ          -3.44356         5.18201        -1.97918
LJ          -3.07833         1.09724         4.34239
LJ          -5.04629       -0.226395        -5.00063
LJ          -1.50255          4.7832        -5.11022
LJ          -1.46914         5.97196         3.41984
LJ           -5.7293         -3.6027        -4.52506
LJ          -2.50054        -5.66988        -1.43676
LJ          -5.13459        -5.02729       -0.595738
LJ          -2.01933        -3.83115        -5.39461
LJ          -1.32049        -5.68596        -5.78135
LJ          0.301811         2.40593        0.145308
LJ         -0.213616        -3.03879         3.34101
LJ          -5.81081        -5.63924         1.31574
LJ          -4.41634         2.43371         1.38487
LJ          -4.92993        -4.94884       -0.947452
LJ           4.37321        0.733295         -6.1288
LJ          -1.04184         3.35509         4.26621
LJ          -5.89478         4.06591       -0.708466
LJ          -4.49722        -4.28835        -5.96661
LJ          0.852934         1.55592        -3.10819
LJ          0.647052        -2.43958         2.93925
LJ          -4.96077        -3.48599         5.83734
LJ          -1.97606         2.53773         3.99522
LJ           1.33118       -0.693744        -3.23038
LJ          -2.08604         3.33624         -5.5328
LJ          -4.61701         3.36991        -3.42513
LJ          -1.15447        -5.69389          -5.659
LJ            2.0363         4.71603         1.05357
LJ           4.83398         -3.1196         1.57336
LJ           5.08126          -6.288       -0.873482
LJ          -2.91965        -1.75887         3.42089
LJ           2.75601        0.609632         1.18745
LJ           3.77643       -0.778082         4.62126
LJ           1.17233        -1.59263        -6.21089
LJ           4.94606         3.13712        -1.84197
LJ          -4.45571        -3.80938         -3.5118
LJ           4.70823         2.73419        -4.41431
LJ          -6.42638        -2.76911         -4.3616
LJ           3.52254        -5.66999        -1.13268
LJ           5.99639         3.81752        -4.56332
LJ          -5.10255        -2.60445        -3.40399
LJ           1.61389        -1.85902         2.99388
LJ           4.71683         2.06978        -5.82173
LJ          -1.39704       -0.179699        -1.38658
LJ           2.00778         6.19914        -2.18721
LJ           5.82111         6.06671         5.49306
LJ           4.81016        -5.01975         2.54442
LJ          -4.77126       0.0751945         -6.3678
LJ           2.43474        0.731512         6.26965
LJ           4.38712       -0.664527         2.12994
LJ          -5.21741         -6.2123        -1.96521
LJ          -4.38703         4.53915        -1.20939
LJ          -3.16144        -3.31875          1.5851
LJ          -5.90423         5.87139        -2.22816
LJ           3.55368        -4.60937         2.51005
LJ           0.78244        -2.49594         3.17491
LJ          -1.45951        -4.97823           6.217
LJ          -1.87254         5.63905         2.74184
LJ          -5.29779        0.853763         4.17768
LJ           1.03533        0.710355        -4.48214
LJ           4.78979        -1.76159         -5.3399
LJ           5.26118       -0.397022          -2.398
LJ           4.79939       -0.538623         2.65576
LJ           4.27043          1.8681         5.35883
LJ         -0.987201        -4.10489       -0.069871
LJ          0.689741         2.94407        -5.92205
LJ           1.29014        -3.29531        0.242937
LJ           5.03038         5.85939         5.93816
LJ           -1.0402         2.89441        -2.23901
LJ           -5.2868        0.848817         5.51874
LJ           3.91711        0.504201        -4.37456
LJ          -4.89464          4.6774          3.3475
LJ          -1.79474         1.42026        -5.53558
LJ          -5.94598        -3.02245         4.42667
LJ          -2.60861         3.56851         6.37922
LJ           2.65067         3.96319         5.78019
LJ           2.17698        -6.00102        -4.47846
LJ             3.801        -5.89109         -2.4354
LJ           5.69807        -4.66501        -4.81486
