108
#Comment!
LJ           0.50387        0.885554        -3.85503
LJ          -6.24646        0.344728        -5.46738
LJ            6.1907       -0.279707        0.106757
LJ            3.8832         5.11422        -4.70168
LJ           4.48761         0.95365        -1.46725
LJ           -6.4184         1.92938         1.07378
LJ         -0.880969        -1.56536         1.12443
LJ            1.9067       -0.549627        -3.82923
LJ          -3.88574         -6.3952         4.95979
LJ          -2.08136        -4.20012        -4.96949
LJ           1.42138         3.53582         -5.6118
LJ          -5.13065         5.74596        -1.45271
LJ           3.76947        -2.09877      -0.0364568
LJ          0.149124        -6.02158        -5.69666
LJ          -0.54993            5.24        -3.26959
LJ           -4.2559         1.41339         2.46047
LJ           5.86033        -1.37946        -4.68944
LJ         0.0516447         -1.6754         5.55303
LJ          -2.89993       -0.985054        -2.55413
LJ           4.80728        -1.26926         2.06255
LJ          -1.13082        -3.67537        -4.86898
LJ            2.1584        -4.78063         3.85475
LJ           4.65007         2.99454         2.99718
LJ          -2.46348         4.42581         3.29393
LJ           -5.7207        0.601193         3.30943
LJ          -5.79007        -2.07551         4.11577
LJ           6.45321        -3.08964         4.01017
LJ           -3.7351         2.55448         4.74319
LJ           2.07441         2.10183         3.84727
LJ           1.36341        -5.27053        0.514321
LJ           0.73317         5.05988        -4.05919
LJ           2.97671        -4.76947         4.92342
LJ           5.29426         3.01644         5.60519
LJ         -0.180569        -6.27065        -4.54546
LJ           5.93852       -0.320328         3.64124
LJ            2.9503       -0.880482        0.202516
LJ          -2.48505        -6.05832         6.15827
LJ        -0.0260624       -0.806514         1.54829
LJ          -2.28311       -0.102729         1.43337
LJ          -5.48122          2.0623       -0.582455
LJ           3.56927         -1.3229        -1.04241
LJ           5.99612         -2.8709         6.13026
LJ           -4.5171         2.47787       -0.782792
LJ          -1.77633        -2.54555         1.83463
LJ          0.787453        -2.17267         1.39223
LJ          -4.69028         1.96711         3.84472
LJ            5.1985       -0.755863        -2.52997
LJ           -3.0458        -2.62829        -3.09063
LJ           4.24446        -4.01964        -5.48876
LJ           4.65673        0.193169        0.289744
LJ          -4.39371       -0.180959         2.14235
LJ          0.322812         2.34684        -5.11995
LJ           5.63802        -1.79131         2.93263
LJ           4.55714         1.53393        0.513141
LJ         -0.652711         4.47626        -2.53217
LJ          -1.42538         -3.4868         6.16318
LJ          -3.47276        0.957857         -2.9802
LJ          -5.69397         2.07918        -3.83574
LJ            -4.752        -5.97536         2.97031
LJ           4.55723       -0.799991       -0.137923
LJ          -4.52142        -3.97216         5.33405
LJ          -2.30648          5.3794         5.68219
LJ           4.91315       -0.703625        -3.76357
LJ          -4.90709         1.46912        0.972252
LJ          -4.70222         3.96759       0.0122043
LJ           2.62223        -5.51663         5.79189
LJ          -4.12394        0.510785       -0.450125
LJ            2.8583         2.43043         2.85491
LJ           2.99977        -2.06029         -1.5635
LJ           3.72946         2.89308         2.58752
LJ          -1.55736        0.751725         2.65045
LJ           1.40871        -1.08293      -0.0123153
LJ          -2.11395         -3.0057       -0.746848
LJ          -1.77242        -2.00456        0.410519
LJ          -5.56495         4.83753          4.6318
LJ            5.9105         3.54432         1.17478
LJ         -0.726063         6.25964         -2.9742
LJ          -1.31351        -2.50746         2.91634
LJ           2.66352         6.15242        -5.35937
LJ          -1.73242        -3.57555         2.56923
LJ          0.240865       -0.335686         4.74359
LJ           3.77428        -3.18018        -2.02916
LJ           1.87505        -1.15538        -1.28014
LJ          -0.73312         -1.8326         2.24796
LJ           5.76166        -5.19765        -3.48402
LJ          -5.72289          1.3472         2.05981
LJ           0.59268        0.804966         2.53188
LJ         -0.498686       -0.541895        -2.96258
LJ           4.51085        -1.63483        -1.85234
LJ          0.171864        -5.45211         6.14747
LJ           3.77121        -5.57379         4.48151
LJ           6.25557        0.359631        -1.15946
LJ           2.52555           2.888        -2.49784
LJ           3.04121         3.31352      -0.0730361
LJ          -6.03535         4.06494        -1.23544
LJ           3.91319        -2.46997        -1.06689
LJ          -5.81348        0.840832        0.774213
LJ          -4.69687         4.69188        -1.85765
LJ         -0.843341        -2.61227        -0.44258
LJ          -4.74041         3.51058        -2.17722
LJ         -0.557592         1.15888         1.73948
LJ           2.06971        -1.99756       -0.311187
LJ           2.00168       -0.388946          5.7819
LJ         -0.422515         1.39272        0.562198
LJ           4.31557        0.771479         2.07694
LJ           4.21842         1.63977         1.38283
LJ           6.19321       -0.253906        -2.77083
LJ           4.29847         1.74387         2.64061
