108
#Comment!
LJ          -3.08045         4.15937        -3.89009
LJ          -5.93478        -1.28105       -0.697584
LJ          -1.29401         1.01301        -4.99713
LJ          0.871585        -4.76836         3.30533
LJ         -0.775819        0.512437        -1.70871
LJ           1.76005        0.358594        -4.88423
LJ           1.16801         3.14598        -1.93174
LJ          -5.91924        -1.82787       -0.558018
LJ         -0.138105        0.539462         1.18896
LJ          -3.51431         -3.3738         2.69301
LJ          -1.76833         5.95562       -0.759729
LJ           -1.0496         3.00784         2.69789
LJ         -0.116138        0.917364         2.46768
LJ          0.640576         3.72486         4.99563
LJ           -2.1874         -6.0929         3.14884
LJ           5.49189        -4.39337         3.06575
LJ           1.58446        -4.56591        -5.10225
LJ          -4.21599         5.69511         5.28697
LJ          -4.50597        -5.64559         1.24372
LJ          -3.69178        -3.66061        -1.40635
LJ         -0.377444         5.75066        0.460877
LJ          0.263314        -2.08198         -5.1994
LJ           3.26951        0.810677         -1.3335
LJ          -3.97641       -0.375282        -1.26064
LJ          -1.66604         5.86874        -4.33716
LJ           -1.9378        -4.40577         4.71591
LJ           6.30649         4.10558        -3.79976
LJ         -0.945688         0.65128         4.77377
LJ           2.39413        -5.64981         6.30404
LJ         -0.717502         3.47917        0.492847
LJ           5.78803        -4.01412         -1.6732
LJ          0.916937           6.238          5.7918
LJ           3.60961         1.08688          2.3672
LJ           5.33722         4.86523        -1.42128
LJ           6.00832        -2.79771        -1.15905
LJ           1.73508       -0.314209         3.36813
LJ           5.09538         4.73076         5.83572
LJ           1.48354         1.30558         4.48394
LJ          -4.19525        0.452404        -4.78075
LJ           4.63039        -5.72305        -3.09611
LJ           3.56462        -5.63423         6.03479
LJ           6.00016        -0.86523         6.26559
LJ          0.145226        -3.13424        0.778213
LJ           1.49177       -0.223584         4.39496
LJ          0.253007        0.736725        -4.96673
LJ          -4.60224        -5.63893        -3.67906
LJ          -5.76828        0.805782         4.14385
LJ          0.259214        -2.38888        0.949058
LJ          -6.28926         5.94413        0.810304
LJ           -3.3311        -4.42458        -2.91675
LJ           4.04015         5.47086        -6.12307
LJ          -4.76537          5.3221         3.00999
LJ          -5.88076         1.15044        -5.40944
LJ           3.82582         2.59276         -4.2668
LJ          -2.55123         4.58187         4.67343
LJ          -6.30235         5.88765         5.84303
LJ           5.54409        -6.40436        0.632325
LJ          -3.01564        -1.35209         6.08358
LJ          -4.44543       -0.683131        -2.00357
LJ         -0.168969         6.15434        -4.36836
LJ           2.85833       -0.392636          6.2954
LJ           3.76007         5.16802        -5.45765
LJ          -4.80703         3.44186         1.03858
LJ          -5.74996        -1.53925         4.19427
LJ          -3.74139        -5.45178         5.89328
LJ           3.92667        0.873727        -4.14435
LJ          -5.63156         2.11202        -3.22908
LJ         -0.554099        0.362278         3.92865
LJ            3.1847        0.222162         2.61232
LJ           3.90848        -4.98297        0.844409
LJ          -2.73706        -2.51066        -3.52087
LJ         -0.180444        -5.27609        -2.17741
LJ          0.767239        -3.11482        -5.09854
LJ           -1.0088        -2.45357        -3.62468
LJ           4.76046         1.90721         4.19707
LJ          0.897094         3.45034       -0.577349
LJ           -3.6818       -0.411442         1.17205
LJ           -6.2887        0.542902        -4.79032
LJ         -0.953113         -2.3734         1.27729
LJ          -5.75984        -1.50302        -3.02413
LJ           1.21478        -5.47142        -4.41318
LJ           1.23539        -4.14256        -2.29096
LJ         -0.347575       -0.696776         5.61909
LJ           4.08951         2.81995         2.86449
LJ          -4.75765        -5.56958       -0.550691
LJ          -1.98399        -5.17741        -4.50607
LJ           4.80185         4.87874       -0.966996
LJ         -0.792415         4.07129          2.2485
LJ           2.04401         4.47534        -2.26204
LJ          0.208901        -5.71749        -4.48858
LJ            3.0833         5.30348       -0.277115
LJ            -4.204         5.15982        -2.12937
LJ           1.31168          1.9247         5.08107
LJ           4.90646        -4.20818          5.8673
LJ          -4.86125       -0.545625        -4.33278
LJ          -1.43697          3.6734         5.10787
LJ           -3.2837         1.65572        -4.02018
LJ          -2.56884         2.43368         5.70039
LJ           5.03511        -4.24475         3.12341
LJ         -0.818374         3.07165        0.308721
LJ            3.0025        0.790452        -2.32452
LJ          0.606056        -2.09043         1.64981
LJ          -1.66669         5.03112         1.00476
LJ           2.19539        -4.35714        -2.52804
LJ          0.587822         2.89145         3.36731
LJ           5.21769        -1.41293        -3.29766
LJ          -3.63276        -4.57096        -5.58792
LJ           1.19525        -2.59978         5.25372
