108
#Comment!
LJ           5.26974         1.06259         4.99455
LJ          -2.07257        -5.85721         5.53261
LJ          -3.38367        -4.77214        0.276081
LJ            6.3206        -1.93454        -1.59142
LJ          -2.54474         4.19217          3.5651
LJ           -1.1006        -5.65535        -1.05411
LJ           3.82762         2.89105        -4.15789
LJ           6.44871       -0.761544       -0.163754
LJ          -5.46388         1.80059         1.66079
LJ         -0.442892        -6.18438        -1.76012
LJ          -1.81893         -3.7589       -0.381144
LJ           3.46826      -0.0402622        -5.25621
LJ           0.18863         1.72138         1.52093
LJ           1.53515         3.10138        0.323388
LJ          -3.28214        -1.96129         6.44284
LJ          -1.16441         6.25613         6.11512
LJ          -2.29991        -1.96112         4.80853
LJ          -2.16638       -0.999603        -1.22722
LJ         -0.395259         1.76541        -1.24171
LJ           -4.4522         5.37656       -0.879125
LJ          -3.48234        -4.47833        -4.13804
LJ          0.953898         1.66169       -0.998807
LJ           6.22508        0.922807        -4.45918
LJ           4.95893        -4.79487        0.772886
LJ           1.26412         -0.2756         1.63105
LJ          -2.34634        -1.85692         4.90237
LJ           6.40665        -2.30531         1.00831
LJ         -0.227183        -3.91202         3.09943
LJ          -3.74975        -4.71563         1.33174
LJ          -4.73861            5.53         4.15287
LJ           4.46666        -6.06996         3.68599
LJ            2.0101         -6.2617        -6.18033
LJ         -0.781827       0.0531349         4.93383
LJ          -2.44182         3.66336         3.22076
LJ          -5.43479         -4.6094         5.65661
LJ          -1.20181         6.37827         5.68422
LJ          -3.73554        -3.75467         5.96872
LJ          0.314317        -1.04617        -0.59635
LJ           5.83707         5.36993        -1.63092
LJ          -6.27092         3.21301         4.33355
LJ          -5.21303       -0.426046          1.0469
LJ           3.80717         4.49296        -3.11233
LJ          -0.27439         6.13786        -5.69529
LJ          0.704395        0.240387        -5.12477
LJ           2.08738         -5.9109        -4.09885
LJ           1.61979        0.431568         5.54148
LJ           1.70496         5.37674       -0.588047
LJ          -4.60508        -5.53256        -1.80178
LJ           3.55922        -4.64615         4.07976
LJ          -1.72946         4.09123         3.92926
LJ             3.393         -3.8908        -1.89002
LJ            5.2773        -3.20258        -2.91183
LJ          -5.45158         5.81935        -6.05667
LJ          -5.13055        -5.28372       -0.918843
LJ          0.578573         1.14004         2.20611
LJ           1.16281         1.50142        -6.27204
LJ           -4.8152         4.80121        -1.48541
LJ          -0.51258         5.82516         5.62046
LJ           -3.8898         4.69822        -5.88943
LJ          0.951702        -0.41152        -4.95052
LJ          -5.77025         -4.3173         3.73425
LJ           2.76653        -6.39802         5.04664
LJ          -4.19317         -1.7516        -4.76496
LJ           5.75799         4.96446        -1.32373
LJ          0.621714        -2.89192        -1.83416
LJ          -4.23046        -5.35052        -5.64873
LJ          -5.65545         2.48995        -1.60704
LJ           4.84094         5.47723         2.83442
LJ            6.0048        -2.59765      -0.0766623
LJ          -3.92545         1.03828       -0.726335
LJ          -2.10604        -4.58015        -4.97198
LJ           3.95919        -1.03187         5.38719
LJ           5.00611         -5.3894         3.84256
LJ           4.57568         1.87672       -0.196678
LJ          -1.47702         3.50406         2.10173
LJ           3.14189         1.07298        -2.42468
LJ          0.673286        -2.44149         4.04239
LJ          -4.53546        -4.23828        -5.13377
LJ           0.34192         2.18108         1.83329
LJ           -4.1386       -0.729641        0.552402
LJ         -0.473005         4.22204        -4.85341
LJ          -2.14312         5.78508         2.14128
LJ          -3.49636         2.60262        -5.83657
LJ          0.680206        -4.92335        -6.12746
LJ            1.8371        0.616499         -5.6471
LJ          -1.39785         1.55916          4.4791
LJ           5.35678         5.92522        -1.58765
LJ          -2.02836       -0.532316       -0.574794
LJ           5.78835          5.0389        -4.26467
LJ          -5.02306         -1.6971         1.56295
LJ          -4.66263         1.61496         1.00765
LJ             4.934         5.69271         1.45023
LJ          -6.26226        0.603569         2.33504
LJ          -3.88112        -2.66722        -5.79876
LJ           4.40957        -5.64054        -2.69942
LJ          -3.01974        -3.64157         4.59581
LJ          -2.55966        -2.03475       -0.717872
LJ         -0.173965         2.95611        -3.73827
LJ          0.140671         6.01995        -5.31266
LJ           3.93139        -6.01396        0.982436
LJ          -1.54666        -3.03217         1.64308
LJ           6.42891         1.12141        -6.20124
LJ          -6.04536        -6.02647       -0.368211
LJ           1.87488        0.846934         5.77591
LJ           5.36197       -0.713624        -3.35278
LJ          -0.91077        -4.94924         1.34777
LJ          -1.46662         2.98121         -2.6356
LJ          -1.08661         6.39554      -0.0131025
