108
#Comment!
LJ           2.93768         4.02812         -4.5509
LJ          -5.14011        0.574517        -4.33573
LJ          -5.47494        -0.63275        0.328382
LJ           2.19482         6.19665         5.23715
LJ          0.791726        -1.24863        -3.29676
LJ           5.90752         4.97244         2.23967
LJ         -0.396162        -2.30294          1.0974
LJ          0.699981      -0.0643127        -3.67028
LJ          -4.80984        -4.11334         6.41213
LJ          0.371518        -3.89236        -4.89963
LJ            2.3996         4.73347        -5.43828
LJ           5.90851        -5.97307         -1.5608
LJ            6.4617        -1.14029       -0.320971
LJ          0.351248         5.15968        -4.53378
LJ         -0.306499         3.15306        -1.85433
LJ           -4.5792         3.49415         1.05777
LJ           3.01958        -1.39137         -4.2834
LJ        -0.0424443        -1.69798         6.40152
LJ           -2.7481       -0.792261        -2.04859
LJ           3.14459       -0.122183        0.130447
LJ         -0.394649        -3.17691        -3.98553
LJ           1.95391        -3.00066         5.61667
LJ           4.08438         2.24113          2.5212
LJ          -4.53434         1.67724         3.61463
LJ           6.17859        0.290337         5.53844
LJ          -4.68947        -1.20477         5.72535
LJ          -5.90511        -1.13598         6.24268
LJ          -2.47247         3.83088          5.7288
LJ           4.70635         2.04666          4.8283
LJ           4.27048         4.31081         1.95624
LJ        0.00221316         4.54856        -3.69754
LJ           2.11443        -2.99832        -5.78358
LJ           5.30034        0.931008        -6.35127
LJ          -0.98521          4.5693        -5.21801
LJ           3.47235        -3.19456        -6.26528
LJ           3.66986       -0.181776       -0.868105
LJ          -2.39829         5.13164         4.43625
LJ          0.427355        -1.45085        0.307985
LJ           -1.9704         2.76473         1.21056
LJ            -4.343        0.424769       -0.795487
LJ           1.89211        -1.76796       -0.655566
LJ           -4.8574        -2.33831        -5.58393
LJ          -5.71332         5.09791        0.912193
LJ          -0.82763        -3.14093        0.595377
LJ        -0.0491165        -2.40237       -0.229655
LJ           -5.1611         1.74228          2.4511
LJ           3.30006       -0.362926        -2.56897
LJ          -2.34162        -2.44029       -0.670796
LJ            5.8319        -3.05275        -4.45273
LJ           6.36936      -0.0877826       -0.759944
LJ          -6.12431         1.27507         2.46355
LJ            2.5793         1.87201         5.03587
LJ           3.81916         1.57905         5.51852
LJ          -5.11845         2.11523       -0.249302
LJ          -1.38935         3.45501        -2.68172
LJ         -0.859316        -2.71311         5.75776
LJ          -1.81332       -0.668424        -4.43162
LJ           6.11251         1.36646        -3.50282
LJ          -3.80834        -4.59154         1.49641
LJ          -5.67694       -0.654926       -0.969696
LJ          -4.78432        -6.10286         5.29413
LJ          -1.89754         4.45305        -5.73867
LJ           3.93895         -3.9276        -1.91713
LJ          -4.42463         1.23399       -0.124673
LJ          -3.44507         3.08988        0.497667
LJ           1.04904          5.9728          3.2276
LJ          -3.46269        -3.01225        -1.16239
LJ           2.02264         1.19482         1.31545
LJ           3.00812        -2.33854       -0.527357
LJ           2.23885          4.0583         2.20382
LJ          -1.77351         1.12393          2.2396
LJ           1.46473        -2.69341        0.443434
LJ          -1.69177        -2.33013        0.128774
LJ          -1.54135          -1.345         1.14141
LJ          -4.65017         3.36551         4.33134
LJ           -5.1641         5.96873        0.610508
LJ          -4.47792        -6.36145        -6.30295
LJ          -1.90295        -2.75341         1.36293
LJ           1.54594        -5.68675        -6.43687
LJ          0.374838        -3.56906         1.43978
LJ          0.397313         2.44065          4.0621
LJ           3.83482        -1.74179        -2.11443
LJ           1.71428         -2.5191        -1.50547
LJ         -0.154265        -2.79639         2.03572
LJ          -5.82995          -4.452        -2.27781
LJ          -5.53278        0.664056         1.12435
LJ          0.986541        0.926535         1.34453
LJ          -1.01532       -0.696842        -1.77639
LJ           5.24418       -0.273282       -0.568396
LJ         -0.118436        -3.11212         4.59256
LJ           1.53144        -3.00963         3.54338
LJ           5.82963      -0.0329995         -2.1014
LJ           1.48874         1.27556         -1.7502
LJ           3.19277         3.18859       -0.675187
LJ           5.53953         3.60313       -0.295051
LJ           3.52064        -1.18838        0.325283
LJ          -5.44211        0.359085      -0.0138376
LJ          -3.85737          2.7951       -0.934668
LJ         -0.396623        -2.41926        -2.85202
LJ          -4.28212         3.35643        -1.79553
LJ          -1.16545        0.146045         2.41334
LJ           2.29294        -4.04869       -0.297736
LJ           1.11075       -0.945943         4.35501
LJ         -0.294333          1.0102         1.58121
LJ           4.08302        0.304359         1.75771
LJ           3.62851         1.56812         1.86844
LJ           4.18899        0.891559         -2.6566
LJ           4.19824         1.18419         2.70068
