108
#Comment!
LJ          0.957346        0.821876        -2.13869
LJ           5.56579       -0.619535          5.6837
LJ           5.00734         0.48182          0.1908
LJ           4.61272         3.65087        -1.04992
LJ          -5.76512         4.97319        -3.80827
LJ           4.87325          2.1396         1.31045
LJ          -2.40783       -0.550125         2.57479
LJ           3.53148        -1.24736        -3.74703
LJ          -3.78304           4.362         3.12864
LJ          -3.54816        -2.93984        -4.96139
LJ          -0.51275         1.84833        -5.56564
LJ           -3.8386          4.7716      -0.0953869
LJ           2.38355        -4.64816       -0.274435
LJ          -1.82476        -4.60644        -2.80692
LJ           -0.8608         3.48948        -4.62805
LJ          -1.54196        -1.23257         4.44623
LJ           -3.1011        -1.40076        -5.29612
LJ         -0.188174        -4.55531        -6.29024
LJ          -2.31903        -1.86162        -4.23438
LJ           -4.6008        -3.62726         4.20492
LJ          -1.92995        -1.69755        -2.63118
LJ           3.51909         6.23737          2.3502
LJ            5.7235         1.67908         4.22698
LJ        -0.0505789        -4.96938         1.98658
LJ          -5.12784        0.631359        0.758263
LJ          -5.64421        -5.30173         1.51556
LJ          -6.42899        -4.08879         1.29607
LJ          -4.17198        0.624216         6.16237
LJ          0.397199         3.00954         1.66165
LJ          0.490534       -0.981231         2.40059
LJ           1.37488           4.812        -4.46041
LJ           3.04311        -5.77402         1.78829
LJ           4.77623         2.59208         4.82651
LJ           1.84901        -4.26085        -3.35742
LJ           5.55055         3.00876         2.36125
LJ           1.66546        -1.09971       -0.430547
LJ           -2.9772        -5.92632         5.76782
LJ          -1.56346        -1.12176         1.96762
LJ          -1.83565        0.106268         3.87209
LJ          -6.13033         4.15539        -1.84139
LJ            5.3854        -1.65556        -2.17298
LJ           3.29783        -3.86054         4.98169
LJ          -1.78591      -0.0811597        -1.26798
LJ           -2.5293        -1.57109         2.79519
LJ           1.54494        0.232305         3.42837
LJ          -6.13217         1.11753         2.21941
LJ          -5.87615        -2.85626        -2.72914
LJ          -3.83763        -2.25803        -5.87034
LJ           3.54098        -2.90051         6.05029
LJ           4.35776        0.160242         5.60936
LJ          -2.89456        -2.60314         1.53464
LJ          -2.00028         4.28056        -3.76829
LJ            -5.282        -4.77532       -0.546606
LJ           4.04021          3.8286        0.456133
LJ          0.802013         5.11808        -2.17459
LJ          -2.34858         -5.0449         6.17637
LJ          -6.41121          2.8069         -2.3832
LJ          -4.66457         3.39745         -3.3519
LJ           5.79786         6.32021         2.55785
LJ          0.119064        -3.54963       -0.324044
LJ          -3.73137        -1.31882         5.81939
LJ          -2.24921         4.90521         3.64382
LJ           6.27421         4.20563        -3.78328
LJ           6.07798         3.86496         0.92968
LJ          -6.06398         5.48233       0.0742785
LJ           3.55996         5.87781        -3.47758
LJ           5.90026         5.79173        0.891434
LJ           2.21352          2.6358         5.87161
LJ           4.20829        -1.53892        -2.53864
LJ           4.06427         3.17394         1.71301
LJ         -0.991324        0.806955         1.42648
LJ         -0.700194       -0.935736         1.03845
LJ          -3.45425        -3.83072        -2.40651
LJ          -3.23066        -3.72973         3.35928
LJ           -5.7852        -5.74068         6.36864
LJ           2.34231        -1.01049        0.484191
LJ           1.99245        -2.11621         2.12698
LJ          -1.44262         -2.0155         2.75842
LJ           5.65019         6.03442        -4.71162
LJ          -3.25265        -3.32148         4.52387
LJ          0.521615        -0.82682         5.40173
LJ           3.79189        -2.34559        -1.80957
LJ           3.18703        0.395695       -0.964691
LJ          -1.77505        -1.04993         3.35879
LJ           3.51293         6.43241        -5.06582
LJ          -4.45054        -0.38849         1.10548
LJ         -0.812082          1.4598         2.37391
LJ          -2.94948        -4.95518        -4.16597
LJ           3.59471        -3.11302        -2.72364
LJ            1.1922         6.37957         2.76791
LJ          -6.39493         5.17961          4.3869
LJ           5.64163       -0.561743        -1.67589
LJ           4.10272         5.07219        -3.49248
LJ           1.98018         1.77841       -0.802748
LJ          -6.44478          4.6772        -2.72775
LJ           4.64468        -1.74293        -1.31802
LJ          -4.67042       -0.478836         2.91748
LJ            -2.271          6.1021        -5.49795
LJ          -1.30705        -3.32058        -2.81874
LJ          -5.29015         3.22451        -1.11775
LJ          0.163136        0.567571         1.81962
LJ           2.42194       -0.560504        -1.11314
LJ           2.93812        0.331087        -5.32017
LJ         -0.411406         1.66503         1.05356
LJ           5.93972         1.83053         2.22993
LJ           3.21276         2.56095        0.723951
LJ          -4.55381        -1.78644        -2.64299
LJ           6.34778         1.57916         5.23851
