108
#Comment!
LJ            2.2895         3.37895        -4.59505
LJ          -5.48193        0.663344        -4.47135
LJ          -6.26475       -0.253821        0.250689
LJ           2.38922         6.10729         6.14595
LJ           1.83513       -0.911983        -2.68659
LJ           6.39621         4.25998          1.5894
LJ          -0.21444        -2.07942         0.83391
LJ          0.958468       -0.137174        -3.75911
LJ          -4.36961        -4.71451         6.21271
LJ         -0.232651        -4.13911        -5.04399
LJ           2.23064          4.3619        -5.40036
LJ           6.35729        -6.26151        -1.52937
LJ           5.98872        -1.18521       -0.131707
LJ           0.62673         5.55634        -4.79278
LJ        -0.0933355         3.71934        -2.21465
LJ          -4.62579         3.01662         1.42091
LJ           3.68696        -1.37374        -4.40275
LJ         -0.199225        -1.88838         6.13231
LJ          -2.92357       -0.846202        -2.00463
LJ           3.50543       -0.403205        0.682605
LJ         -0.558147        -3.13822        -4.07606
LJ           2.00453        -3.39847         5.22176
LJ           4.29531           2.559         2.70348
LJ          -3.94913         2.33963          3.6984
LJ           -6.3606           0.363         4.72539
LJ          -5.10296        -1.31503         5.29628
LJ          -6.02727        -1.66807         5.86414
LJ          -2.71098         4.04545         5.18489
LJ           4.05715         2.13045         4.62626
LJ           3.57118         4.60631         1.16859
LJ          0.250086         4.85552        -3.90156
LJ           2.31427        -3.45257        -6.24603
LJ           5.30684         1.43832         6.36492
LJ         -0.946805         5.10056        -5.02501
LJ           4.25381         -2.5853         5.95741
LJ           3.83891       -0.384478       -0.581311
LJ          -2.59412          5.0581          4.9563
LJ          0.536023         -1.4072        0.688344
LJ          -2.00396           2.121         1.21606
LJ          -4.91286        0.691316       -0.982983
LJ           1.99677         -1.8092       -0.555661
LJ           -5.3662          -2.454        -5.97926
LJ          -5.80252         4.33575        0.827644
LJ         -0.913501        -3.15311        0.822595
LJ          0.269657        -2.48247       -0.018133
LJ          -5.04184         1.88267         2.83256
LJ           3.72055       -0.275697        -2.54612
LJ          -2.42633        -2.57753        -1.32299
LJ           5.45177        -3.29372        -4.70596
LJ           5.97711       -0.164723       -0.436099
LJ          -5.86756        0.887678         2.61967
LJ           2.04097          1.9358         5.83289
LJ           4.23262        0.707578         4.89643
LJ           -5.8407         1.73511       -0.206127
LJ          -1.42802         3.66029        -2.67229
LJ         -0.861018        -2.65955         5.95197
LJ          -2.21272       -0.265859        -4.10154
LJ          -6.46098         1.40056        -3.73031
LJ           -4.0355        -4.92381         1.84912
LJ          -6.13912       -0.967675       -0.932971
LJ          -4.81906        -5.60648         5.17978
LJ          -2.04132         4.70454        -6.08435
LJ           4.29256        -3.29719         -2.4962
LJ           -4.3952         1.09056        0.337165
LJ          -3.56818         3.34091        0.434009
LJ             1.426         6.30949         3.83111
LJ          -3.63757         -2.0871        -1.14641
LJ           2.19916         1.52834         1.66806
LJ           3.06812        -2.56972       -0.791573
LJ           2.55359         3.84227         2.31524
LJ          -1.81925          1.0925         2.52575
LJ           1.36432        -1.92573        0.274929
LJ          -1.77953        -2.56468       0.0342432
LJ           -1.5462        -1.62704         1.29226
LJ          -4.89491         3.74369         4.41619
LJ          -5.59611         5.60984        0.749883
LJ          -3.52591        -6.46168         -5.5447
LJ          -1.96388        -2.57699         1.84092
LJ           1.72149        -6.26191        -6.13766
LJ          -0.13415        -3.56627          1.6234
LJ          0.350986         1.78277           4.227
LJ           3.78851        -2.04598        -2.10122
LJ           1.69847        -2.22446        -1.57498
LJ         -0.608741        -2.49102         1.98407
LJ          -6.14558        -4.62048        -2.57469
LJ          -5.88945        0.439075         1.07885
LJ          0.947827         0.82709          1.6815
LJ         -0.882097       -0.627251        -2.06159
LJ           4.90304       -0.444829       -0.669327
LJ        -0.0383825        -3.71643         4.92673
LJ           2.08826        -3.61999         3.67392
LJ           6.16612        0.322722        -1.48396
LJ           1.73704         1.66702        -1.92641
LJ           3.17052         3.74911        -0.12002
LJ           5.92222         3.74366       -0.600529
LJ           3.76447        -1.47324      -0.0589438
LJ          -5.38949        0.813611       0.0115173
LJ          -4.24928         3.18198       -0.935406
LJ         -0.537302        -2.44153        -2.22702
LJ          -4.36892          3.4013        -2.13335
LJ          -1.05777        0.310396         2.14381
LJ           2.19343        -3.23573       -0.319552
LJ           1.33836       -0.810606         4.69665
LJ          -0.38517         1.13062         1.26764
LJ            4.1652        0.511382         1.92038
LJ            3.8048         1.51108         1.66534
LJ           4.54007        0.531539        -2.68939
LJ           4.26528         1.22726         2.67267
