108
#Comment!
LJ          0.989602        0.437975        -2.49958
LJ           4.17323         -1.1404         4.14922
LJ           3.77906        0.470746        0.292283
LJ           4.60316         2.27038        0.303718
LJ          -4.32373        -5.82987        -4.93736
LJ           3.96543         3.39455        0.697634
LJ          -2.97594       -0.449107         3.81182
LJ           4.22476        -1.87416        -4.19955
LJ          -2.53547         2.94846         2.21293
LJ          -3.62488       -0.461007        -5.96024
LJ          -2.25908        0.374059         -5.4237
LJ          -3.30816         3.78466        0.932832
LJ           1.23955        -6.23902       -0.650004
LJ          -3.72814        -2.41475       -0.887495
LJ           -1.7626         1.92853        -5.17094
LJ         -0.947794        -2.35603         3.14813
LJ          -1.02752        -3.15542          6.4535
LJ         -0.692222         5.62885        -5.30368
LJ          -2.37337        -2.83447        -5.48357
LJ          -4.14509         5.59942        -6.40836
LJ          -2.32664         1.09759        0.875624
LJ           3.54986         5.65308        0.904566
LJ           6.05404         1.22721        -6.41017
LJ           1.06783        -3.87738         2.28905
LJ          -3.15862        -1.72509       0.0431881
LJ           6.22031         6.17932       -0.916663
LJ          -5.53106        -6.13403       -0.532657
LJ          -4.98467       -0.646923        -5.30162
LJ          0.685203         5.36021         1.25286
LJ           1.25552       -0.408996         3.56378
LJ           1.62079         4.31507        -4.25594
LJ           3.23501         6.16958       -0.285788
LJ            5.2767       -0.391054         4.60183
LJ           3.53685        -2.72914        -2.30954
LJ           5.33315         4.69736         1.87215
LJ         -0.127401        -1.36348        -3.95763
LJ          -3.82359        -6.42469          5.0521
LJ          -3.83269       -0.147107         1.86773
LJ           -1.2914       -0.486735         5.29389
LJ          -5.54114         4.55807       -0.853269
LJ           5.65679        -2.91741        -2.44701
LJ           1.21608        -4.51544         4.17109
LJ        -0.0291394        -2.24228        -1.39741
LJ          -2.88028       -0.412452         2.32206
LJ           4.36871         3.38083         5.47134
LJ           5.84746        0.689793        0.219048
LJ          -5.09636        -3.38815        -2.82804
LJ          -3.43279        -1.05261         6.05654
LJ           3.17337        -1.42965         5.08802
LJ           4.88543        0.330047        -3.02446
LJ          -1.98587        -3.47493        0.381606
LJ          -2.75763         6.19918         -3.1864
LJ          -3.55829         5.94486          -2.698
LJ           3.51476         4.85737        0.187617
LJ           1.98721         5.68813        -2.18007
LJ          -3.14895         5.88544         5.76202
LJ           4.43899         3.09445        -3.48858
LJ           -4.3412         4.59147        -2.42852
LJ           3.67739        -5.26472        0.453274
LJ           -3.2433        -5.70058       -0.635795
LJ          -2.24841       0.0774122         -6.3986
LJ          -2.94536         4.11104           1.928
LJ          -5.50113         5.87751         6.42314
LJ            4.6458         6.25817         1.08155
LJ           5.97388          6.2222         1.79638
LJ           3.25822         6.32228        -1.26715
LJ           3.97473        -3.15671       -0.298896
LJ           1.63315         2.73483          -4.765
LJ           5.50708        -1.77818        -2.65909
LJ           2.26129          3.5103         2.56703
LJ          -1.13206          1.2667         1.34759
LJ          -3.45234        -1.14146         1.72602
LJ          -5.87516        -4.08355        -2.58348
LJ          -2.12539        -3.69082         5.69277
LJ          -4.87399        -3.39721        -3.82217
LJ           1.83033         -1.8938       -0.194091
LJ           4.11523         1.96497          5.6476
LJ          -1.85595        -1.95589         4.35984
LJ          -5.52484        -6.41408        -3.97416
LJ          -2.62656        -3.99677        -6.14589
LJ          0.576032       -0.629912        -5.27228
LJ            4.0212        -1.71919        -2.85821
LJ            3.4863        0.139908       -0.915542
LJ          -2.15063       -0.885833         4.77912
LJ           1.13428         5.02297         -6.0089
LJ          -3.76519       -0.555392        0.538291
LJ          -1.53953          1.3138         2.40127
LJ          -4.76524         4.32069        -6.16819
LJ           3.66294         -1.5937        -1.52043
LJ           1.92954         5.60652       -0.319401
LJ          -5.47265         4.31446         4.33175
LJ           6.01914       -0.197955        -2.41591
LJ          -5.38084         4.83808        -4.56207
LJ           1.88714          1.4773         0.54137
LJ          -4.65103        -6.00527        -3.58708
LJ           4.47968        -2.34546        -1.75977
LJ          -2.91985        -1.59133         3.27843
LJ         -0.964603        -5.29303          4.4621
LJ         -0.848419        -4.39243        -4.96559
LJ           6.19129         4.70497        -1.17333
LJ          -1.86437         0.21444         1.26204
LJ           2.39008        0.308393       -0.335264
LJ           3.68106        0.866857        -4.00718
LJ          -1.08849        0.478863        0.456851
LJ          -6.18634         2.78611         1.62761
LJ           4.47495         3.88754         1.71246
LJ          -2.87009        -3.40733        -2.18397
LJ          -5.74939         1.47255          6.2145
