108
#Comment!
LJ           1.18114        0.902841        -1.90471
LJ           4.99817       -0.793077         5.10148
LJ           4.56952        0.853569        0.171704
LJ            4.1861         2.80089       -0.113412
LJ          -4.97134         5.93636        -4.10247
LJ           4.57133         2.46081         1.24468
LJ          -2.74876       -0.227073         3.37793
LJ           3.91412        -1.54688        -3.73751
LJ          -3.39616         3.62054         2.73111
LJ           -3.6876        -1.85165        -5.29755
LJ           -1.2099         1.37402         -5.4709
LJ          -3.59387         4.37923         0.37662
LJ           1.87812        -5.28443       -0.456822
LJ          -2.59188        -3.71983        -1.87665
LJ          -1.27121         2.68887        -4.89064
LJ         -0.812136        -1.86002         4.05201
LJ          -1.97744        -2.10944         -5.8125
LJ         -0.350073        -5.69457        -5.82946
LJ          -2.05799        -2.60273        -4.50481
LJ          -4.28862        -4.99483         5.09747
LJ          -2.26858       -0.484559        -1.23947
LJ           3.97528         6.18675         1.80926
LJ           5.83566         1.52746         5.17472
LJ          0.777781        -3.80681         1.57468
LJ          -4.34369       -0.306615        0.025953
LJ          -6.00437        -6.09451        0.474168
LJ          -6.06332        -4.72777        0.517894
LJ          -4.25503      -0.0714713        -6.24495
LJ           0.50552         3.99805         1.49588
LJ          0.827841       -0.750523         2.90436
LJ           1.51376         4.72809         -4.5522
LJ            3.0985          6.2219        0.787779
LJ           4.75899         1.16412         4.66221
LJ           2.51094        -3.57455        -2.94481
LJ           5.52277         3.61261         2.23926
LJ          0.871339        -1.26531        -1.96824
LJ          -3.34585         -6.2951         5.25917
LJ          -2.64605       -0.398408         1.87022
LJ          -1.50843       -0.128546         4.54178
LJ          -5.74007         4.64149        -1.53525
LJ           5.50082        -2.34169        -2.36653
LJ           2.41141        -4.15414         4.62961
LJ         -0.935175       -0.999486        -1.27506
LJ          -2.59684        -1.37817          2.4237
LJ            2.7296          1.6113         4.29935
LJ           6.39173        0.867403         1.34849
LJ          -5.08682        -3.34774        -2.74871
LJ          -3.70113        -1.74994        -6.40839
LJ           3.48447        -2.23251         5.57554
LJ           4.53454        0.275251        -5.54411
LJ          -2.52007        -3.02274         1.03202
LJ          -2.30471         5.08874        -3.51514
LJ          -4.68273        -5.63705        -1.58891
LJ           3.76472         4.56332        0.254384
LJ           1.27835         5.34843        -2.17811
LJ          -2.70432        -5.75329          6.1199
LJ           5.62147         2.90245         -2.8617
LJ          -4.49598         3.86673        -2.98204
LJ           5.05855        -6.43918         1.59176
LJ          -1.29077        -4.47773       -0.451268
LJ          -3.46244       -0.614751         6.24395
LJ          -2.41933         4.69386         2.89438
LJ          -6.28713         5.18712        -4.97429
LJ           5.33655         4.93672        0.951451
LJ           6.26575         6.07886        0.836362
LJ           3.44886         6.08165        -2.54471
LJ             5.009        -5.41219        0.578435
LJ           1.96723         2.66848         -6.0914
LJ           4.92568        -1.33498         -2.8023
LJ           3.40771         3.23485         1.82553
LJ          -1.33098          1.1351         1.39386
LJ          -1.73108        -1.16093        0.948905
LJ          -4.66381        -4.24454        -2.74112
LJ          -2.94168        -3.79404         4.23624
LJ          -5.41243        -4.72995        -5.40389
LJ           1.77773        -2.09706        0.760763
LJ           2.86347       -0.416667         3.60759
LJ          -1.84728         -1.9992         3.55074
LJ          -6.38733         6.12799        -4.33594
LJ          -3.15119         -3.6443         5.67327
LJ          0.553083       -0.742798         6.35875
LJ           3.98801        -1.85952        -2.25903
LJ           3.37775        0.311413       -0.922569
LJ          -1.99435       -0.907022         3.99398
LJ           2.47162         5.72014        -5.29853
LJ          -4.24446       -0.610893         1.17234
LJ          -1.08332         1.56927          2.6885
LJ          -3.64711         6.39134         -5.0434
LJ           3.33409        -2.79486        -2.12498
LJ           1.56912         6.07837         1.50748
LJ          -6.00477         4.81434         4.36591
LJ           5.54909       -0.663021        -1.97238
LJ           5.44451         4.88423        -3.88617
LJ           1.73024         1.33044       -0.710016
LJ          -5.79452         6.10461        -2.93376
LJ           4.82939        -1.83743        -1.49387
LJ          -4.18502       -0.991651         3.18136
LJ          -1.51916        -6.30547         6.15353
LJ          -1.38432        -3.41641        -3.93134
LJ          -6.05272         3.51988        -0.98783
LJ         -0.558415       0.0966182         1.61939
LJ           2.33798       -0.068752       -0.697542
LJ           3.27294        0.550443        -4.71452
LJ         -0.454666         1.31068        0.468115
LJ           6.33508          2.3646         2.04781
LJ           3.61531         3.33422        0.837893
LJ          -4.13312        -2.53411        -2.59894
LJ          -6.00447         1.54639         5.74593
