108
#Comment!
LJ          -2.76932        -1.52638        -5.52339
LJ          -0.12713         4.03948        -1.88598
LJ            4.3497        -1.93453       -0.918079
LJ           1.54204        -4.84335         2.36758
LJ          -2.95727       -0.551422         2.98363
LJ          -5.46692         3.14242         6.33538
LJ            0.9005        -3.24058         1.60364
LJ           1.16562       -0.948834        -5.60332
LJ           5.92729         4.36887         -4.1877
LJ           -5.7629         5.46479         -4.0238
LJ           -2.6461         1.61476         2.13238
LJ           1.51102        -4.37086        -2.06147
LJ          -2.79426        -2.94082        0.914955
LJ           5.49719        -5.86469         5.57749
LJ          -4.07137        -0.81025         6.32875
LJ          -2.79029         3.37985        -2.00141
LJ           4.22074         2.86411         5.77257
LJ           4.93023          -6.278       -0.572246
LJ          -3.50583         4.07354        -3.09192
LJ          0.624838         3.87926       -0.817793
LJ          -5.81212        0.961742         -1.4428
LJ           3.47475       -0.481189        -4.13767
LJ          -3.36896       -0.135114        -4.19208
LJ          -6.35327         5.86182        -6.02506
LJ         0.0302607         2.92694         1.58501
LJ           2.83276         3.83024         5.60663
LJ           1.68275         4.09405         5.26094
LJ          -2.48727           0.454         6.35516
LJ           1.98521         1.20814        -4.76834
LJ         -0.192063        -5.76621         4.92039
LJ            1.5511         5.94455        -6.22081
LJ          -3.12421         1.42547       -0.402653
LJ          -1.46141        -4.13228        -2.80745
LJ           2.33826         4.21797       -0.602879
LJ           1.00752         2.01204        -3.30708
LJ            6.1344          1.6466        -5.46959
LJ          -2.88791        -4.60352         3.37686
LJ          -6.01358         5.37242         1.96077
LJ           -3.9534       -0.285457        -6.39347
LJ          -4.18314        -1.85344        -1.43268
LJ          -1.41455         4.89621          6.2761
LJ          -6.34604         4.99671         4.16709
LJ          -2.48765       -0.369356         4.72712
LJ           4.01573         5.73225        -5.41315
LJ          -2.41426         5.33762        -2.86271
LJ          0.715616          5.5455         1.37204
LJ         -0.464233         6.34432        -4.56785
LJ          0.625665        -2.49529         6.28171
LJ          0.229006         3.99651         5.81338
LJ           3.48262        0.694538         1.37358
LJ          -3.06366         5.75396           6.025
LJ          -0.69582        -2.10408         2.30123
LJ           4.72494        -4.41214       -0.888362
LJ          0.236995        -4.58589        -6.18295
LJ           5.53453         3.13889         6.38367
LJ          -6.17548       -0.344812       -0.438521
LJ           2.18691         3.99108        0.157938
LJ           3.88379        -1.66286         1.21414
LJ          -1.65032        -4.13623        -3.65412
LJ          -1.14593         2.16416        -5.62131
LJ           4.52072         2.35463          5.6772
LJ         -0.295909        -4.24335        -1.94847
LJ          -5.47426        -4.92871       -0.452034
LJ          0.254562           2.467        -2.65052
LJ           2.12698         1.98243        -4.89386
LJ         -0.826278        -1.90682        -1.94079
LJ           1.56123        0.188049         2.92273
LJ          -4.52477       -0.605769        -3.36717
LJ           3.69092         3.19787         3.74692
LJ           3.15755        -6.19283        -5.98238
LJ         -0.166955        -3.70341        -5.72093
LJ         -0.839018         2.92853        -1.71494
LJ          -1.68102         1.57288          3.8223
LJ            1.0502        -4.80296        -2.00479
LJ           1.72387        -4.54135        -2.78558
LJ           5.48319        -6.21547         1.07868
LJ          -3.48563         5.81393        -5.50599
LJ           4.42766        -3.97693      -0.0535852
LJ          -4.87935        -0.69433          0.9448
LJ          -3.95024       -0.589207          3.7816
LJ           5.59856        0.661193          3.6987
LJ          0.133687        -4.40875       -0.149961
LJ          -1.99696        -1.62737        -6.29808
LJ          -5.05876         5.07895        -5.10857
LJ           3.27856        -0.95187        -1.89913
LJ           3.29548         2.98877      -0.0744081
LJ           2.62683         4.96581         4.68634
LJ         -0.560065         4.53737        -3.91908
LJ          -4.89611        -1.13346          5.3956
LJ          -5.01145         -4.6335         1.46741
LJ           -5.4172         -5.0933        -1.80514
LJ           1.63194        -5.39132         1.89272
LJ           1.73759        -1.08063        -4.36946
LJ           6.13491        -5.46622         -1.3457
LJ          -5.31523      -0.0303553        0.999559
LJ           1.81133        -4.45653       0.0623857
LJ          -3.75778         2.28988        -4.23593
LJ           2.98234        -3.83572        -6.12954
LJ          -4.33781        -1.41599        -5.08504
LJ          -3.34816        -5.90589         4.60437
LJ          -4.14197        -1.96483         5.86176
LJ           -2.4618        -1.00077        -1.00837
LJ           3.37726        -5.20584        -1.67413
LJ         -0.754858          5.4296          1.9576
LJ          -1.34186         1.91229       -0.339355
LJ           2.16913      -0.0935717         3.94312
LJ           1.98629        -1.49259         -4.1665
LJ          -6.24951         1.18317       -0.429765
