108
#Comment!
LJ          -4.36657         3.49806        -4.03633
LJ           1.20145        -2.12221        -6.06987
LJ           3.79479         5.25961        -5.27853
LJ          -1.23972         1.64716        0.379666
LJ          -3.79339        -1.19871        -3.84058
LJ           2.18152          6.0535        -1.13702
LJ          -6.19811        -0.51259         5.95366
LJ           -4.0053        -2.45353         4.17052
LJ            1.4648          1.7469         4.81065
LJ          -1.50022         6.26717         4.73884
LJ          0.423263        -1.88312         1.42522
LJ          -3.75006        -4.67164        -1.79796
LJ           1.44889        -3.77444        -4.84088
LJ           3.07189         5.89134         1.89548
LJ          -3.57697        -4.20762         4.36846
LJ          0.634526         4.26213         3.76297
LJ          0.742795         4.64299         2.14664
LJ           -4.4003         3.49408        -5.75498
LJ           -3.0273         5.80138         1.01241
LJ           2.16373         4.99976         3.23786
LJ         -0.844827         4.02814           3.327
LJ          -2.49012       -0.521511         1.49931
LJ           2.96513         2.86871        -3.43751
LJ           2.99208         1.77974          6.2686
LJ           4.86205         3.28925         1.90535
LJ           6.40655         1.34748          4.5877
LJ           2.00184          3.2738        0.466583
LJ           2.06517          6.3339         6.12871
LJ          -5.25579         2.34932          2.0206
LJ          -6.24849        -0.92531         2.12029
LJ          -4.68905        -2.99397         6.09375
LJ          -2.86228        -4.02585       -0.905214
LJ          0.123275         6.36724         2.26019
LJ           5.54828         -5.5721        -6.26824
LJ          -1.57862        -4.23749         -1.3001
LJ           5.94178      -0.0519384        -5.36068
LJ           -1.4991         3.89323        -3.79674
LJ          0.484732         4.06648         6.07126
LJ          -4.31732         5.43088         5.32206
LJ            6.1574        -0.91632         1.12316
LJ          -1.85011         3.80125          2.7819
LJ            1.5367        -4.39158         2.65854
LJ          -4.56944         3.86063        -6.25154
LJ          -6.41641        -3.86229        -1.61509
LJ           5.83671       0.0337654        0.277204
LJ          -6.35901        -3.86636         5.93149
LJ           2.84699        -1.17378          4.3349
LJ           2.13502        -3.51411         -2.3024
LJ           1.45298        -2.98901        -2.08653
LJ           3.71878        -5.26606        -6.28372
LJ          -6.18859          2.1573         4.46557
LJ          -4.05703        -3.10135         3.89509
LJ          -2.78118        -3.38589        -4.80927
LJ           4.01119        0.525047         4.25565
LJ          0.707971         -1.9544         -4.3219
LJ           -4.9554        -0.22134        0.135489
LJ           5.11246       0.0730881       -0.210415
LJ            1.8722        -5.45135        -6.33288
LJ            5.0341        -3.50308         4.36211
LJ             5.031        -1.70473         1.66746
LJ            4.4833        0.851989         6.19539
LJ           1.46321         1.16706         3.32489
LJ         -0.250744       -0.367928         2.77773
LJ          -4.21553         1.69377         -2.9706
LJ           -1.9634         2.14452        -4.11104
LJ           1.98199        -2.37428       -0.453365
LJ         -0.517614         1.24406        -4.25359
LJ          -2.10472      -0.0404448         5.70477
LJ          0.301446         5.51187        0.291313
LJ          -3.13207         6.20473        -0.18157
LJ          -6.18355          5.3843        -4.13923
LJ           2.01532         1.20893        -2.91832
LJ           2.00785        -1.49919        -4.84709
LJ          -3.24083         3.85619         1.09919
LJ          0.187665          1.3549         3.34872
LJ          -3.10232          4.9221         3.34495
LJ             -2.01        -3.38717        -2.59466
LJ           5.57396        -2.66548         3.61476
LJ           4.04164        0.401434        -5.51259
LJ           3.98827        0.815036         4.45666
LJ          -3.95124         3.37474         4.07454
LJ          -3.48722         5.45504        -1.60692
LJ           6.39802        -3.03058         4.81838
LJ          -6.23942          5.2551        -3.15031
LJ           4.71794         -0.8765         -5.8786
LJ           4.87738        -5.58783         4.37434
LJ           5.40036         1.14119        -5.83443
LJ          -1.84008         1.37064         5.62807
LJ          -4.30304        -1.47759        -1.94468
LJ          -1.69116         2.49236         2.09712
LJ           -1.3743        -1.63205       -0.146597
LJ           6.32393        -2.76923        -4.47286
LJ          -4.92437        -5.90179        -6.03947
LJ           3.33649       -0.374785        -0.70068
LJ          -1.61839         5.33454       -0.174907
LJ         -0.538814        -3.76802        -1.26893
LJ          -2.88433        -2.16561        -6.19049
LJ           1.11739         1.92208         -1.7873
LJ          0.878966        0.571552        -2.14056
LJ           2.37349         3.72951        0.725563
LJ          -2.82347        -4.54908        -0.70668
LJ          -4.98575         0.58274         3.69042
LJ         -0.249159        -4.00194          1.1373
LJ         -0.270133        -2.88705          4.5044
LJ          -2.08676         6.04221        -4.81701
LJ           2.97992        -5.24747        0.825173
LJ           5.59791         -4.4664          6.2895
LJ            4.7254         -3.1309        -3.99746
