108
#Comment!
LJ           4.54544        -4.36507          2.9508
LJ           3.73858         5.89848        -6.25727
LJ         -0.580037          3.4222        -3.90443
LJ           6.45216         -4.0909        -2.29225
LJ          -2.51063         5.97143        -2.44838
LJ           4.08238         1.14602        0.349145
LJ          -2.87804        0.156028         1.79763
LJ            4.3752        0.263601       -0.335554
LJ          0.332189        -5.26181         5.73224
LJ          -5.45772         -1.2658         3.45482
LJ           6.18117         4.84475         2.53178
LJ           1.80073         0.56769       -0.435645
LJ          -3.47193          2.7025        0.253127
LJ          -3.76832        0.803103         2.55793
LJ            0.4878       -0.341668         4.75245
LJ           4.79063        -1.27705        -6.45287
LJ           6.17913         3.99389         2.44819
LJ           1.15477        -3.75984        -2.43326
LJ         -0.693895         4.71467        -3.46856
LJ          -4.06458         3.17234         4.99533
LJ          -4.44926        -2.72516         1.21937
LJ          -5.28982        -4.01513        -1.93732
LJ          0.282454        -3.07721        -1.05512
LJ          -3.46179        -1.11707          1.0419
LJ          -1.21454        -1.21115        -1.95428
LJ           6.11869        -5.57106        0.231007
LJ           -4.0616         1.26779      -0.0652338
LJ           5.56494         -2.8325         2.12638
LJ         0.0299277        -4.95448        -4.17214
LJ          -2.02992         4.35446        -5.89318
LJ           6.15471         1.00385         1.39301
LJ           4.52417        -6.15693        -6.44495
LJ           5.05451        -6.26877         -2.3156
LJ           4.07034        -6.25184         5.41399
LJ           2.42286         0.43969        -1.33462
LJ          -1.07165        -6.23755        -2.26404
LJ          -1.67205        -2.17436        0.642353
LJ           2.10799         2.43866        -5.91291
LJ           5.84303         -5.6013        0.265037
LJ          -3.46313          3.0026         5.82349
LJ           5.13123         6.43036         2.45063
LJ          -2.93197         1.69469         6.28978
LJ          -4.04899         5.03198        -5.35966
LJ          0.613138       -0.854524         3.64647
LJ           3.04032         -2.9287        0.787331
LJ          -4.76109        -0.33396        -3.39091
LJ          -5.27266        -1.90756         5.56117
LJ            2.2292        -4.25587        -1.86106
LJ          -2.68087        -4.38796         3.26734
LJ          -5.63844        -5.33008         1.15926
LJ           4.30886       -0.591922         3.61884
LJ          -3.48304          3.1126         6.29019
LJ        -0.0153995         6.05744        -2.53915
LJ         -0.325532        0.731957         2.03017
LJ          -5.73751       -0.871668         5.85112
LJ           1.16852        -5.36883         2.42492
LJ           3.69772         1.28888         6.26455
LJ          -2.80988        -3.27824         4.95558
LJ          -6.05312        -1.58746         -3.9211
LJ           6.43085        -3.50497         4.75928
LJ            5.7444        0.330122         5.44373
LJ           1.90375         -2.9501         2.46766
LJ           -4.9752        -2.59227        -3.26901
LJ           0.22007         1.15027       -0.211556
LJ          -4.06031        -3.36309        -3.20506
LJ         -0.827767         4.96116        -5.30565
LJ          -1.08057         3.07905        -4.20466
LJ          -4.86282         5.69231         1.66117
LJ           -1.5775         2.73601        -1.07051
LJ          -4.06925         2.14053         1.12064
LJ            2.4237         6.22674         3.25167
LJ          -5.25984        -1.38232        -2.96672
LJ          -5.65871         -2.2311        -3.74392
LJ          -6.29774         1.74669        -4.79815
LJ          -1.63633        -4.46172          2.1681
LJ          -4.64917         1.13846       -0.786458
LJ           2.94872         4.55072         3.30268
LJ          -4.20892         5.47461        -3.76766
LJ           -2.1304        -5.49986        -2.69983
LJ          -2.34527       -0.818048         3.12591
LJ            2.9781        -6.37356        -3.66913
LJ           4.70699         2.99391          5.2889
LJ          -1.07915        -1.57924         2.44582
LJ          -3.71494         6.35755         4.47488
LJ           2.87893        -2.72722        -2.09065
LJ          -2.13244         5.91556         3.66981
LJ          -1.85856         1.93315        -6.19169
LJ           3.18024          1.0935         -5.0189
LJ          -1.19799        -4.16242         4.41388
LJ           2.51264         2.68594       -0.126844
LJ          -2.90607        -2.56503         2.37524
LJ          -2.13033         3.61817       0.0209503
LJ         -0.343751         1.57431         -2.0793
LJ          -2.67238         1.33441       -0.242957
LJ          -3.49437        -3.97812         5.88018
LJ          -2.07113        -3.33304         1.77099
LJ           4.78953          4.7655        0.139659
LJ          -4.80006        0.107846         3.15127
LJ           1.04469         6.09539        0.231592
LJ           5.79108        -6.06364        -5.27187
LJ          0.226996          4.8513        -3.27586
LJ           2.91691        0.331073          2.4629
LJ          -2.90751         6.46149         2.23307
LJ            5.7403         1.19893       0.0719587
LJ          -3.85563           2.389       -0.361745
LJ           5.47433        -1.48427         1.07841
LJ           2.18355         1.53128        0.418814
LJ          -1.26131         5.65559        0.146246
