108
#Comment!
LJ         0.0454936        -2.66538        -1.02776
LJ           -4.8875        -4.69237         4.32471
LJ          -3.55649        -2.81675         4.09343
LJ           2.10938        -2.56184        -1.45179
LJ          -3.88576         5.52149         2.33507
LJ          -6.34136         4.75029       -0.950099
LJ          -4.07741        0.827483        -0.69191
LJ            5.5822         6.18177         -1.3863
LJ          -2.64354         -4.9993      -0.0150434
LJ           4.50632        -5.97086        -2.47033
LJ           5.42496         1.72828         4.67544
LJ           5.55883         1.66445        -2.36813
LJ          0.508442        -2.04664         1.11578
LJ         -0.054027        -2.63565        -5.06986
LJ          -5.00051         4.70207         5.08679
LJ           -3.5671         5.66723        -5.49742
LJ          -2.71704        0.034865        -3.78329
LJ           5.05978          0.4368       0.0510906
LJ          -3.53988         5.41916        -1.97181
LJ           1.91663         4.06745            5.79
LJ           3.55279         1.48791        -3.12318
LJ           4.93134         4.52222         1.79239
LJ           -4.3416         -2.2723         6.39841
LJ           4.36022        0.141358        -5.91404
LJ          0.878855        -4.79945        -5.47594
LJ           3.22565        -1.56945        -5.30083
LJ          -2.85695        -3.72124         4.10668
LJ          -3.31285        -4.50063         -6.3937
LJ          0.188839        -5.97509        0.257172
LJ            1.5453        -4.61192        -5.77681
LJ           3.45801        -4.32107        -5.79377
LJ          0.471107        -4.60369        -2.36029
LJ          0.419907        0.380368         4.49807
LJ          -4.92399         3.02699         -2.2032
LJ           2.76632        -6.35889        -4.22133
LJ          -2.95053         6.26638         5.79236
LJ           5.06222       -0.974461         4.83487
LJ           5.75759        0.702132        0.945454
LJ        -0.0895766         3.45534        -1.60544
LJ         -0.144486        -3.61736       -0.466995
LJ           1.13676         1.08748         4.14402
LJ           5.06152        -3.03982          3.2142
LJ          -3.75941         4.44441         4.92932
LJ          -4.83205        0.862025        -4.27898
LJ          0.871616       -0.626868        -5.62929
LJ           5.46301         -4.6915         4.12818
LJ          -5.11049        -3.67622       -0.117917
LJ           6.06335         2.90488        0.511153
LJ          -1.69362        -5.99641        -1.83133
LJ          -3.79496        -1.25333        -1.65373
LJ           2.97719        -1.17199        -2.12163
LJ           3.02907        -1.48201       -0.747307
LJ           5.96534         0.55127       -0.237472
LJ           4.93375        0.470382        -3.64856
LJ          -5.73347         4.26441         -3.1924
LJ          -5.08076        -1.26951         1.02412
LJ           0.11371        -4.23998        -5.74559
LJ          -2.15364         1.16915        0.998663
LJ          -5.71087        -3.31383         4.18009
LJ           2.60875        -5.76392       -0.717162
LJ          -2.70651         -3.0411        -4.32123
LJ           1.45084        0.119649         1.25244
LJ        -0.0128685         4.32606        -5.74393
LJ           -6.1432        0.692948         -5.8214
LJ           2.18141        -3.48954       -0.732359
LJ           4.79257         1.11571        -3.62153
LJ            3.6891          -2.498         0.45589
LJ           3.99975        -1.00922         4.20805
LJ           6.30161         5.29083         2.63516
LJ          -2.93926          2.8475        -3.84583
LJ           1.46725         5.02918        -3.49355
LJ          0.694692         4.93462        0.184859
LJ          -5.94575        0.323351        0.884803
LJ          0.364193         4.41771        -2.24904
LJ           -6.3507       -0.901119        -2.44315
LJ          -4.20935         1.24584          1.1655
LJ          0.992685        0.533701        -1.45237
LJ         0.0457811         -4.1709         2.30544
LJ          -3.65359       -0.903757        -5.30623
LJ           2.95792        0.384697         2.51183
LJ          -1.50232         6.24067        -4.47374
LJ           3.67484        -2.93133         1.52653
LJ           4.40731         3.89362        -3.47778
LJ          -5.56812        -1.37655        -4.09062
LJ          -5.78582         5.35531        -0.21182
LJ           4.74138       -0.416615         2.65506
LJ             4.594          5.9859        -5.63359
LJ          -5.81651        -4.22526        -6.26741
LJ          -2.29524         5.80006        -3.93585
LJ         0.0836997        -4.54834         1.41416
LJ          0.147785       -0.624016        0.682919
LJ           3.99047         6.40513         4.15063
LJ          -4.42926       -0.169869         -3.0129
LJ         -0.838669        -3.36529          1.9579
LJ           5.22576        0.151706         2.62619
LJ            2.9307       -0.494793         4.51492
LJ          -4.63835        -2.98383       -0.967097
LJ           2.07333         5.76203         1.23153
LJ          -2.43774        -2.79794        -0.81655
LJ          -6.43256           3.195         1.39671
LJ          -1.22226       -0.224499        -4.27695
LJ          -5.10039        -3.73709         4.62483
LJ           3.23159        -1.30676        -5.05537
LJ           1.39896        -3.50905          5.2796
LJ          0.485793         3.94785         -1.6466
LJ           -1.3527         2.77389         4.82444
LJ         -0.958326       -0.263038         -5.3501
LJ           1.23006        -1.47768        -1.80385
