108
#Comment!
LJ           3.80786         0.76839         5.76653
LJ          0.298588        -3.28357         -5.1601
LJ           4.57458        0.759902        -3.25462
LJ           1.65127          3.1515        -3.62097
LJ           1.98097        -4.03463        -1.86752
LJ           1.90712        -5.89749        -6.34939
LJ          -5.34372         1.64647        -3.72585
LJ          0.688433         1.58528         2.60651
LJ           5.39254        -3.32114         4.36939
LJ           1.72805         -3.6953         4.29376
LJ           5.09426        -5.29317        -1.60931
LJ          -5.68419        -4.06356         2.85441
LJ         -0.476347          3.0595         4.81858
LJ           -5.8636       -0.235535         5.25793
LJ          -6.00584          3.3227       -0.207434
LJ          -3.94839         4.53197        -3.13617
LJ           2.58506        -0.66635         5.25707
LJ           1.34314         4.01442        -1.72296
LJ           -4.7935         5.89172         2.38792
LJ          -5.03838         -5.2281        -3.85878
LJ          0.775741         2.53732         4.29946
LJ          -6.33195         1.70503        -6.14072
LJ         -0.492749        -2.60819         6.23429
LJ          0.692727        -3.96048         2.62163
LJ           5.86323       -0.713546       -0.582198
LJ          -5.47129         4.63119         4.66958
LJ          -1.95085        -4.80933        -3.11469
LJ           2.08398          5.4847        -4.58572
LJ           1.38959        -5.06378          3.0981
LJ          -6.03235         3.11884        -4.17764
LJ          -3.28001         3.94814        -2.91773
LJ          0.804469         2.45222         3.03031
LJ           5.80144        0.385188         0.80533
LJ         -0.459135        -4.20291         3.22867
LJ          -1.34932        -3.62705         2.75996
LJ           4.85917        -3.05061        -4.36605
LJ          -5.40483        -4.79745          3.9574
LJ           4.72123         3.90976         3.15583
LJ           3.16622         5.72068        -1.38664
LJ          -1.05364         1.83926         6.27662
LJ         0.0300665         4.51084           -6.24
LJ           2.91224         4.21416        -1.48982
LJ          -2.29241        0.994735        -4.51992
LJ          -3.93904         3.04564        0.972353
LJ           -5.8525       0.0310305         4.92789
LJ          -3.91485        -2.03239         2.49219
LJ          -2.62186         2.14703          5.0137
LJ            2.3698        -3.70617         1.99022
LJ           5.44579        -5.29078        -1.72044
LJ          -3.53888         6.10992         -2.6747
LJ         -0.535186        0.551276        -3.51134
LJ          -3.06175       -0.945815         3.23358
LJ          -6.44918         -1.8425        -5.64742
LJ           3.53585       -0.622159       -0.451965
LJ           5.05355        0.870639        -5.71384
LJ          -2.75116         5.16974         6.36492
LJ          -2.68952         5.90101        -3.50428
LJ          -6.02897         4.03241       -0.863316
LJ           1.70802        -4.79813         4.14605
LJ            5.4415        -6.11381        -2.39526
LJ          -3.76293        -2.25147       -0.392202
LJ           5.12015       -0.708879        -6.01782
LJ           6.16493         5.62125        0.434448
LJ           4.18594        -2.09163         2.39002
LJ           4.65217       -0.831898         3.98221
LJ          -2.21578        0.910354         1.34671
LJ          -4.59846        0.847614         6.41436
LJ            0.9901         4.44106         0.51162
LJ          -4.16524        -5.51014        -4.08697
LJ          -3.65179         2.16743         3.92614
LJ           2.80168        -1.15293         4.59285
LJ           4.26341        -2.25117         5.56852
LJ          -5.35183       -0.230762        0.580615
LJ          -5.45784        -4.36261         5.72624
LJ          -6.31062        -1.03713         2.24362
LJ           3.16011         4.56386         3.52277
LJ          -2.71378        -4.53008        -5.36491
LJ          -4.56469        -2.20253       -0.875111
LJ             3.979        -3.58458         6.35648
LJ           -3.8226        -4.83969        -6.10192
LJ           2.40967        -3.10148         -4.1227
LJ          -5.16059         4.47423          5.8165
LJ           1.42272        -3.42376        -5.79157
LJ           4.72815        -4.12631         4.62732
LJ          -4.92595         0.90726         2.16738
LJ          0.416804          3.5617        -5.05104
LJ           5.84136         1.34369        -6.00684
LJ          -4.18394       -0.407275        -4.44744
LJ           6.06903        -4.35526         6.44461
LJ           -1.3584          2.8519         5.63613
LJ           4.95731         4.97544        0.858809
LJ          -4.61828        -2.84642        -5.24832
LJ          -2.44482         2.95391        -3.30175
LJ           3.98505         5.64418        -3.88371
LJ           4.18678        -6.01986         2.29756
LJ           4.62389       -0.716457         3.87977
LJ          0.145844       0.0440041         1.50777
LJ          -1.35501        -3.71141       -0.376034
LJ           3.67324         4.10019        -1.06916
LJ           5.19694        -4.74759        -4.93055
LJ           4.93339          1.7983         4.75333
LJ           4.44872        -4.36621         2.13888
LJ           5.24392         0.43702       -0.129477
LJ           1.81752        -4.40389         6.20902
LJ         -0.651194         2.85509        -5.54261
LJ           -5.1479        -1.04887        -4.00981
LJ          -4.98209        -3.17373         5.50911
LJ           -5.1841        -6.13872        -2.76516
