108
#Comment!
LJ          -2.17065         0.23728         5.16337
LJ          -3.69343         6.31966       -0.351277
LJ          0.904201         3.71525        0.922964
LJ          -1.59214        -4.81548         2.88367
LJ          -1.79752         6.07806        0.607279
LJ          -2.29466        -4.92976        0.045358
LJ           5.65546         5.93349       0.0978951
LJ          -1.28175       -0.332271         1.72666
LJ           1.67816        -3.05703        0.493238
LJ          -4.66404        -1.01418        -4.87154
LJ            2.0727        -4.90385         -2.1496
LJ          -2.69864         4.17201        0.316609
LJ           -1.4607        -5.55836         4.95424
LJ          -2.27245         4.58341        -4.03983
LJ          0.387088         2.20709        -5.57499
LJ            4.7366        -2.54356        -1.25336
LJ           4.77576         4.64494         2.81785
LJ          -1.47536        -5.93228        -3.27351
LJ          -2.43926         -6.4171        -5.15706
LJ          -6.02912         6.32305        -2.38191
LJ           4.61677        -1.44436       -0.904091
LJ          -1.38137         2.06618        0.319494
LJ         -0.370572      0.00573697         3.98142
LJ           3.78611        -3.90814         4.65489
LJ          -3.62127         5.02574        -1.19623
LJ           2.07108         5.21802         1.83723
LJ           1.23212         6.36354         -3.5294
LJ           -1.3902         1.31574         -2.1663
LJ          -4.46957        -5.73987         2.07987
LJ          -3.41615        -2.59423        0.497118
LJ          -6.14881         2.56895        -1.42776
LJ             3.747         -5.1195         -2.8669
LJ           5.16202         0.90529        -0.60345
LJ          -3.66176        -5.12457         3.08389
LJ          -3.85593         4.24156         1.52021
LJ          -3.46518       -0.010666        0.403123
LJ           6.01875        -6.09128       -0.141493
LJ          -3.80092       -0.357507      -0.0332851
LJ           -5.0072         4.80756        -3.93559
LJ           0.25456         1.60858         6.01967
LJ           2.92313        -4.05288        -4.03354
LJ          -5.30729         3.55307       -0.467213
LJ          -6.12683        -1.24059         2.16808
LJ          -2.64205         1.16182        -1.10664
LJ            1.1449       -0.169898         2.99512
LJ          -3.68781         -6.1955        -2.80502
LJ           -2.0237         0.42994         1.34645
LJ          0.389541         6.45575     -0.00813617
LJ           4.30903          1.1002        -5.69296
LJ           5.78863        -3.29715        -3.86721
LJ          -3.40172         6.05983        -2.54355
LJ         -0.901716         4.79716         -1.2382
LJ            -6.237         5.79329        -3.65451
LJ           3.22445         -5.4313         4.13689
LJ          -4.38643        0.777115         2.14114
LJ           5.51976         4.76827         5.05208
LJ          -4.44442      -0.0913066         1.09446
LJ           1.51159         2.30314         2.33908
LJ          -4.52527         1.39433        -4.50329
LJ           1.96718        -5.96411         2.78495
LJ          -3.55377        0.541368        -5.35719
LJ          -4.47736         2.03904        -5.88862
LJ           4.42458        -3.33708         3.89103
LJ           2.10289         5.47627        -2.06876
LJ          -4.09304         6.38695         2.56406
LJ          -4.91929        -5.70402         5.95333
LJ          -2.75023        0.574029          4.6925
LJ           1.77933        -3.03897         2.72991
LJ           4.27372        -4.23355         4.48521
LJ          -3.13389        -6.21954         -2.4432
LJ          -4.86927         2.94482        -1.50886
LJ           2.35354         4.00217         1.95094
LJ           0.40467        -2.15251       -0.161444
LJ           4.30621        -3.00279        -3.82403
LJ          -1.78053         5.15783         5.18422
LJ            3.2009        -2.30191        -1.93331
LJ          -5.88939        -2.08601        -5.39372
LJ           5.54479        -2.15449        -2.62969
LJ          0.274658        -1.93615         6.18974
LJ          -1.33128        -1.85945         5.34409
LJ           -6.3017        -1.35882         2.99532
LJ           2.87915         1.58543        0.679315
LJ           1.33408        -1.93329        -4.60286
LJ        -0.0257611        -2.18677         3.62487
LJ           4.71359       -0.843007        -4.98635
LJ          -1.31242        -3.65861          1.2914
LJ          -3.17857        -5.94066         3.08558
LJ            5.5253         4.41838         -1.8602
LJ           2.42864         2.53407        -2.06403
LJ         -0.891171        -3.61003        -0.29336
LJ          -5.90868         4.09021        -4.78289
LJ            4.0979         2.76724        -5.82065
LJ           2.88619         1.33986        -5.24083
LJ          -2.49601         6.10387         -2.3259
LJ          0.441377       -0.619484         2.20827
LJ            4.8077         3.50818         -1.8735
LJ           3.99331        -5.78601         2.33283
LJ           -4.5923         2.61842        0.424775
LJ           2.34405         1.24625        -2.45804
LJ          -6.36176        -2.75724         1.23956
LJ          0.483691         2.36442         5.74719
LJ           2.30912          1.5866         5.93456
LJ          0.444549        -2.14323         6.06853
LJ          -1.61557        -4.93263          -1.971
LJ           6.04327        -2.44912        -5.97986
LJ          -2.41445          2.3899          4.7741
LJ          -2.44896         3.49355         2.38988
LJ           2.02731         2.33142         4.60103
