108
#Comment!
LJ           1.92522        -2.64249        -5.77747
LJ           3.04886        -6.05283        -5.66326
LJ          0.823596        -4.52717         2.57712
LJ          0.482884         2.72717         2.77899
LJ           2.80029         2.16265        -1.55043
LJ          0.819634         4.38666         3.92713
LJ           -2.2662         -5.5484        -6.17532
LJ           1.68099         1.64355        -4.06722
LJ          -3.77819        -2.33134         2.32188
LJ           2.15378         5.48796        -3.99019
LJ           4.14345         3.61302         1.70197
LJ           -3.2574        -2.10197      -0.0077328
LJ          -4.84513         2.05395        -2.19117
LJ           2.11427         1.55354        -6.19878
LJ           4.28643         5.24117         4.84821
LJ          -3.00014       -0.627932        -1.55485
LJ           4.14231        -2.68144        -4.30042
LJ           -6.4311          2.7279       -0.500039
LJ          -6.16726        -5.43242         5.24321
LJ           1.74212         5.44149         1.12017
LJ          -1.44475        -4.11535        -2.85521
LJ          -3.44397         4.66532         1.25828
LJ          -2.44116        -3.69545        -5.40331
LJ           5.94297        -1.81107         1.67258
LJ           5.02599         5.81799         1.61106
LJ           -4.5504         1.54165          6.4007
LJ          0.229836         6.09672        0.302292
LJ          -3.44646        -1.39632         3.29893
LJ           3.99549         -3.1756        -3.40925
LJ          -1.27978         2.28604        -2.83404
LJ            4.6104        0.224771         6.08719
LJ          0.707459        -1.95447        0.159719
LJ           2.31229        -3.60754        -3.66888
LJ           1.28509        -2.43679         2.35682
LJ           3.21427       -0.973024        -5.17652
LJ          0.063139         6.24099        -2.15415
LJ          -4.22909         2.53445       -0.284234
LJ          0.606195         1.52152        -5.29596
LJ          -3.43967         2.34836       -0.905704
LJ          -3.66387          5.4048        -3.00859
LJ          -6.20885         3.79706        -2.24162
LJ           5.95472        -1.06551         3.40481
LJ           4.28709        -2.91593        -6.04651
LJ          0.520209         -1.7937         4.12778
LJ           5.88761         2.72347         0.89606
LJ           4.00911        0.506855        -2.27428
LJ           1.19966         4.95558        0.974806
LJ           1.85428         2.38891        -2.17641
LJ          -4.05912          2.8115         3.56311
LJ           3.32679        -1.95093         1.71737
LJ          0.863512        0.522926        -4.20563
LJ          -4.68631        -2.18946        0.921054
LJ          -6.13209         3.96066        -2.01156
LJ          -2.23328        -5.44323         3.89722
LJ           5.23917         6.12218         4.26053
LJ          -1.51889         2.82786         3.79788
LJ         -0.329197         -5.8628        -3.81873
LJ          -6.36329        -3.40404         4.34481
LJ          -4.65734         5.02621         1.50587
LJ          -1.08209       -0.433011        -6.02484
LJ          -5.74966         6.29293        -2.35421
LJ           -5.3531         2.16598         4.79359
LJ            2.4955        -6.44189        -4.55371
LJ          -4.81557         2.70333        -5.35238
LJ          0.343079        -5.18333         3.70915
LJ           4.71853        -1.56458        -4.31112
LJ          -5.29263         2.23168         1.22664
LJ          -3.65994         5.77548         5.44805
LJ          -6.36363         6.32775         1.28447
LJ           1.73257         2.09774         1.09875
LJ          -5.69969        -1.28553         5.92752
LJ           0.59649       -0.666789        -2.00572
LJ           -3.3268        -5.22167       -0.988307
LJ         -0.493065         1.90616         3.26946
LJ          0.141414         2.74356        -6.36817
LJ           3.89238        -2.65069        0.337857
LJ           2.12307         1.12776        0.188737
LJ           2.53559         5.41811         0.38326
LJ           3.01093         5.04333         3.84686
LJ           4.29009        -5.77612         -5.7803
LJ           5.15878           3.554         2.20529
LJ           2.00312       0.0433761       -0.837672
LJ           3.44709         3.85356       -0.470623
LJ             2.733        -3.60873        0.895781
LJ           1.07442         4.34644        -1.85077
LJ           5.21828       -0.558376        0.615171
LJ          -5.66316        -4.88454       -0.100572
LJ           2.06324         -1.8372        0.973458
LJ          -1.34683          6.2348       -0.111049
LJ           0.12215        0.699322        -3.04868
LJ           3.98317        -4.20508        -4.45522
LJ          -3.02336        -3.57808         2.83294
LJ           4.36284        -3.11799          2.2112
LJ           2.25517        -2.87023       -0.406129
LJ          -2.30347        -2.69277         1.30437
LJ         -0.157485         1.35322         4.18331
LJ         -0.285569          5.6943         4.06966
LJ           3.92816         1.47256        0.771223
LJ         -0.757667        -5.52708         4.13047
LJ          -3.69982       -0.342797         1.83284
LJ           1.71275         4.78071       -0.989226
LJ          -3.53729        -6.19148         2.85776
LJ           1.72578         5.52099        -3.70838
LJ          -6.21015         4.62625        -0.64419
LJ           5.77276        0.150037         5.52234
LJ          0.660198        0.946082         1.27216
LJ        0.00428336        -2.87153         1.66415
LJ          -2.39907        -5.76468        -3.62965
