108
#Comment!
LJ           5.90704         2.39366         3.04909
LJ          -2.21114        -4.36211        -5.40808
LJ           2.42653       -0.544483        -4.95382
LJ           0.86533       -0.102329        -1.96726
LJ           1.04659         1.87665          3.8395
LJ           5.19186       -0.230927       -0.253887
LJ          0.512409      -0.0667058        -1.67428
LJ           5.24331        -6.10108         4.05961
LJ           4.65957      -0.0092703        -3.45742
LJ          -4.90505         6.41099        0.561783
LJ          -2.57268         5.45137        -3.69989
LJ         -0.347004         2.16502        -5.94781
LJ          -4.98434        -3.60681         5.52034
LJ           0.34856         4.69539         1.75435
LJ           1.77743         3.32722        0.548759
LJ          -2.87941        -5.26398         4.85087
LJ          -1.79247        -2.02859         5.24813
LJ          -3.37377        -4.19279         3.94235
LJ          -2.79171          3.0774         -2.2379
LJ          -3.96123         5.97631        -4.19252
LJ           -2.7025         -4.9762        -6.02224
LJ           3.54264         1.40367        -4.39855
LJ           -5.9688        -5.78545         4.37519
LJ          -3.63339        -3.82604        -1.06999
LJ           4.53481        -1.15244         5.06132
LJ           1.57606        0.276661        -4.66598
LJ          0.260979       -0.151988         4.06384
LJ          -2.54168         5.82567         1.18713
LJ         -0.126591       -0.385325        -4.49677
LJ           6.27273         1.92023        -5.91357
LJ           -3.6176        -4.29447          5.1194
LJ            3.2741         4.72885        -3.79617
LJ           3.05876      -0.0544962          3.8298
LJ           2.31476         1.30689         1.85691
LJ          -4.26396        -1.44782         1.88534
LJ           3.86226        -3.73098         1.43097
LJ           5.24491         5.95969        0.249734
LJ           4.64339      -0.0129865          3.3039
LJ            5.7246         4.93464           5.485
LJ           -5.9902         2.19356         3.88535
LJ           -3.0658         5.03388        -3.49431
LJ           1.15598        -4.55358        -1.24429
LJ           1.73796       -0.853866        -4.25802
LJ          0.350226        -3.36469         5.19227
LJ          0.755086        -3.73477        -2.09313
LJ           3.41038        -0.44231        -1.54874
LJ           3.73712        -4.57761        -4.66201
LJ            2.6965       -0.105208       0.0937962
LJ          -5.49768        -0.58455        -5.90429
LJ           0.70846         5.24864         4.87632
LJ           5.55947         4.97305        -6.41516
LJ          -3.83767       -0.291277         1.67748
LJ          -3.82021       -0.243339        -2.24281
LJ           3.66798        -3.78421        0.385673
LJ          -3.99971         4.06253        -6.42378
LJ          -5.10676         4.51308        0.975429
LJ          -0.38681        -2.85214        0.829318
LJ           2.43986       -0.430143         1.13151
LJ          -6.24114        0.263049        -4.28043
LJ           3.00094        -5.39335         1.11158
LJ           3.95678        -5.98827        -6.04386
LJ           5.89882         1.56551        -5.70812
LJ          -4.47312        -3.69836         3.27862
LJ            1.4073         2.65444        -3.06936
LJ         -0.614008         1.26727         1.87381
LJ           5.73238         3.23489         4.82347
LJ           5.99802        -1.45956         1.27924
LJ          -2.76354        0.581983        -1.37369
LJ           3.12509        -1.62193         4.05713
LJ          0.260321        0.139901         5.79248
LJ           2.66995         4.92381         5.43817
LJ            3.9139        -1.73674        -1.50624
LJ           5.84427        -3.57761        -6.29871
LJ           5.81278         2.42472        -3.30341
LJ           4.78724        -3.09866        0.699627
LJ         -0.539657         1.29726        -3.99807
LJ          -1.90865        -5.64464         2.91638
LJ          -3.57529         3.17687        -1.65759
LJ          -4.11728         5.08319         5.87648
LJ          -6.24262        -5.99021         -1.5093
LJ          -5.10625          -2.396        0.291199
LJ           -6.2312         -5.1771         1.62991
LJ          -2.93302        -3.56879          5.8162
LJ          -5.78153        -2.91653         1.24286
LJ           -3.3551         0.57521        -1.24016
LJ          -5.83628         2.45957        -1.91442
LJ           5.04839         2.66155          5.0985
LJ          -1.41647        -3.64255         5.51398
LJ          -4.05993         4.12615         6.20813
LJ           1.83947        -3.49995        -3.28736
LJ          -4.03745        -5.28085         6.19892
LJ           -4.5685        -1.24492         6.28686
LJ           1.41849        -6.34819        -2.76274
LJ          -4.67788         4.16151        -5.70234
LJ          -3.95009         4.45068         4.87251
LJ           5.41708        -4.20076       -0.865321
LJ          -2.42703        -6.25223         -1.8184
LJ           4.64724        -3.34737         3.26846
LJ          0.201773         3.95858         4.05579
LJ          -5.05062        -2.97509        -2.35847
LJ          0.514751        0.964212         5.74859
LJ          -3.84016         3.12951        -2.93427
LJ           1.44969        -1.72106        -2.68567
LJ           4.88131       -0.448641          4.8377
LJ           5.39496        0.154062         4.16294
LJ           5.11824         1.98926         6.16706
LJ           4.57811        -3.15738       -0.590785
LJ           2.41712         3.09064        -1.51116
