108
#Comment!
LJ           3.97636        -3.10862        0.125714
LJ           3.85911         3.10972         4.28358
LJ           3.39815        0.748504        -5.48763
LJ           6.33148        -3.91195        -4.22896
LJ           4.83799         0.59155        -6.27921
LJ           5.68585        -1.65031       -0.491479
LJ           -5.7072         1.85249        -3.20988
LJ          0.748317         5.08494         6.00372
LJ          0.656468         1.97716        0.131969
LJ           2.01566        -2.38202        -3.09146
LJ         -0.623709        -2.24394        -5.69541
LJ          -3.55859        -2.94281        -5.12814
LJ           2.76613        -1.59129         2.29067
LJ          0.427168        -5.30127         5.49109
LJ          -2.30863        -5.77604        0.147724
LJ           1.12388         1.19646         4.00022
LJ         -0.626253         4.11548        -3.99763
LJ          -2.84782        -1.41786         4.86587
LJ         -0.109181        -3.01626         1.55672
LJ          -3.00741       0.0366958       -0.123239
LJ          -4.28777        0.795573        -3.66799
LJ          -2.01706        0.146358         4.70309
LJ           4.88913        0.776152        -2.79001
LJ          -4.94315         3.42677        -1.59379
LJ          -6.26667         1.86945        -2.03033
LJ          -2.42088       -0.756845        -3.81222
LJ          -5.14346        -1.86258        -4.78047
LJ          -3.08186        -3.08567        -1.74358
LJ          0.628582        -5.37237         5.74378
LJ          -2.90577         5.26735        -4.70859
LJ           6.27363        -6.07898        -3.45989
LJ           4.50171        -2.94427        0.190902
LJ           3.29479        0.347944        -4.48503
LJ           -6.2386      -0.0233234         1.33298
LJ          -6.36044        -2.12225        -5.95545
LJ          -3.98194          2.6849         0.11053
LJ         -0.297487        -1.07291         4.33237
LJ          -2.66307        -4.07415         2.39006
LJ          -6.10359        -5.40701        -4.21349
LJ          0.481282         3.93752       0.0340218
LJ          -3.81998        0.136596         5.69577
LJ          -4.45519         3.17649         0.53994
LJ           2.56923        -4.91088        -5.13055
LJ          -3.90749         2.80062          2.6971
LJ           2.48174         1.36154         4.36223
LJ          -1.82777         1.50501        -2.49428
LJ           5.25746         3.76053         2.93871
LJ          -5.22647        -5.75904         1.22803
LJ         -0.110166         -1.1831       -0.710215
LJ           -1.2097        0.570393      -0.0858525
LJ           3.16484        -2.67669         -4.4903
LJ           3.91681        -4.95343        -4.12927
LJ            5.2596        -1.92924         3.15328
LJ          -3.42902        -5.77778          4.6114
LJ          -4.37861       -0.706544         5.28767
LJ          -2.67532        0.513045         3.48708
LJ           4.78688       -0.503951        -2.36715
LJ           0.42774         3.26874        -5.57649
LJ           -2.4156         2.24435         5.99279
LJ          -1.80996        -4.14336        -3.21893
LJ          -3.52575        -2.67799        0.167771
LJ          -3.16331         -3.3806         2.96981
LJ          -3.00495        -5.74887         5.42421
LJ           2.68132        -2.81388         1.79146
LJ           3.45739        -2.31685        -1.61613
LJ          -2.46267         1.10902       -0.630173
LJ           4.90974           4.601         1.96212
LJ           1.21981       -0.286673        -5.61582
LJ           4.21226        0.302354         3.77002
LJ         -0.338361         3.08316         1.26316
LJ           5.56046         2.73833        -1.61222
LJ          -4.08712       -0.563424        -5.17839
LJ          -1.57445        0.374087        -1.42499
LJ          -5.42946         3.71487       -0.883799
LJ           5.68451         5.01691          4.2848
LJ          -1.04589         3.43186         -3.5364
LJ          -1.41537        -5.75635         1.08416
LJ           4.31402        -1.41661         1.03178
LJ           5.17713         2.57966      -0.0838036
LJ          -5.68252        -2.19491         2.67792
LJ          -3.69632         2.14611        -3.37124
LJ           1.40196       -0.930992        0.565051
LJ          -1.56746         5.15686         -4.5731
LJ           -6.0755         2.39202        -6.26538
LJ          -2.80323         6.24067         -4.1052
LJ            6.3883         1.00476       -0.999882
LJ            5.3794         4.86135        -5.42201
LJ           3.96314        -4.10934        0.919845
LJ           5.23798        -3.24644          5.9768
LJ           1.83972         3.48965        -2.91028
LJ           4.47856         -4.0181        -3.10763
LJ          -5.87547        -5.93311          4.0332
LJ          -3.29623         2.91132         4.97261
LJ          0.412406         3.80246        -2.79901
LJ          -6.17022        -2.54644        0.321206
LJ          -4.60744         5.94334           3.619
LJ          -5.94373        0.929564        -1.00019
LJ          -2.28092        -2.55449        -4.54956
LJ          -3.52361         5.39284         6.16785
LJ           5.80641         1.13012        -4.02538
LJ          -3.20232         4.36125        -1.65201
LJ           1.87688       -0.608588        -1.06585
LJ          -6.22546         1.98856         1.06806
LJ        -0.0419509        -6.15624        -2.48731
LJ           -4.2907        -5.78466         2.60208
LJ           -1.0236        0.459008         4.80719
LJ           5.23479          1.0861        -6.38143
LJ         -0.408613         6.27714         4.76757
