108
#Comment!
LJ           5.22008         5.86407        -4.04002
LJ          -4.02308         0.26604        -3.85589
LJ          -3.76199        -1.51602       -0.666945
LJ           1.39229        -6.32032         2.17403
LJ         -0.535476        -1.75911        -3.68251
LJ           4.17904         -5.6306         4.35516
LJ          -1.09542         -2.5311        0.659873
LJ         -0.230364       -0.701909        -3.18449
LJ          -6.32527        -1.93211         -5.7672
LJ           1.48731        -2.88598        -3.68676
LJ           2.93159        -6.45429        -5.93031
LJ            4.3105        -4.91378        -1.65121
LJ          -5.07777       -0.589793       -0.520225
LJ         -0.997031         3.49877        -4.06105
LJ           -1.5914         1.74873        -1.56992
LJ          -4.01751         5.98867       0.0270817
LJ          0.725574        -1.66917        -3.92031
LJ          0.527136        -1.25485        -5.64676
LJ          -1.80485       -0.618609        -2.06742
LJ             2.031      -0.0511231        -0.87187
LJ          0.470786        -3.27856        -4.21979
LJ           1.73755        -1.59473        -5.58751
LJ           3.53098         2.04455         1.63787
LJ           6.06234       -0.055185         2.03776
LJ          -6.20168       -0.958133        -5.87278
LJ          -4.44567       -0.587548        -5.15551
LJ          -4.62679        0.463021        -5.75838
LJ          -1.58633         2.39761        -5.63052
LJ          -6.27768         1.54345         5.75041
LJ          -6.13226         3.34397          4.7445
LJ          -1.20403         3.15314         -2.9227
LJ           1.80681        -1.56499        -4.48783
LJ           3.78257      -0.0379738        -4.18197
LJ         0.0534547         3.08249        -4.91774
LJ          0.782937        -5.49858        -3.94956
LJ           3.47333        0.401752        -2.13962
LJ          -1.67943         5.69708         2.54283
LJ         -0.222589        -1.82266       -0.607505
LJ          -2.11832         4.91548         1.11185
LJ          -2.97464       -0.158694      0.00519409
LJ           1.44815        -2.20378       -0.648774
LJ           -3.2033        -1.81313        -4.46992
LJ          -4.99316        -5.25133         1.01167
LJ         -0.583175        -3.14101        -0.05408
LJ          0.287502        -2.52322         -1.3265
LJ          -5.79141        0.868318         1.59272
LJ           2.43986       -0.656664        -2.19843
LJ          -2.22116        -2.26119         1.29358
LJ          -5.74759        -2.19442        -3.58612
LJ          -5.16409        0.368185        -1.15647
LJ          -6.33468         2.11708         1.73901
LJ           5.00226         1.24039         3.01998
LJ           2.33141         4.78428        -5.75267
LJ          -3.07734         3.15874       -0.383269
LJ          -0.48867         2.41775        -1.99354
LJ         -0.235525        -2.48044         4.17056
LJ          -2.40735        -1.65197         5.14161
LJ           4.79569        0.998088        -2.64518
LJ          -2.86139        -3.29666        0.223702
LJ           -3.4384       -0.408169        -1.05647
LJ          -4.32745         5.10396          3.5164
LJ          -2.14607         3.86306         -4.4798
LJ           3.78858        -5.84264       -0.487494
LJ          -4.16809         0.48172       -0.444686
LJ          -3.31423         1.80586        0.776661
LJ        0.00809917          4.6613         1.17411
LJ          -2.30258        -5.96046       -0.955973
LJ            1.3999        0.954327        0.503971
LJ           2.22297        -1.01674        0.391857
LJ          0.933396         4.94015         1.82088
LJ         -0.703657         0.38684         1.47092
LJ           2.46372        -5.50535       -0.342953
LJ         -0.949226        -1.36577        0.609128
LJ           -1.2993       -0.479275         1.43103
LJ          -3.78742         1.92979         3.96902
LJ          -4.12924        -5.75555          0.4278
LJ           4.79145        -5.97398         6.16438
LJ          -2.05472        -3.54292        0.872392
LJ           1.03247        -3.75704         5.32615
LJ           0.93936        -3.09588         0.73547
LJ          0.584866         4.75565         3.43811
LJ            3.8045       -0.884797        -2.33198
LJ           1.93489        -3.18489        -0.60539
LJ           0.83347        -3.41008         1.96621
LJ          -4.74914        -3.89445        -1.21424
LJ          -4.17575         1.37009        0.468652
LJ        -0.0871887         1.05423        0.769999
LJ          -1.72249        -1.13568       -0.669509
LJ          -6.00321      -0.0880698       -0.159401
LJ         -0.421389        -1.21102         3.95325
LJ           -1.1076        -2.11263         2.78732
LJ           4.49608       -0.874871        -4.74327
LJ          0.761607       -0.168948        -1.06213
LJ           3.13942         2.10361        -1.58726
LJ           4.19595         3.08738        0.809688
LJ            2.8875       -0.179906        0.823667
LJ          -5.01511       0.0702463        0.493143
LJ          -3.21008         2.11025       -0.271031
LJ        -0.0547345        -2.03069        -4.63239
LJ          -3.47515         2.70354        -1.31257
LJ          -1.26655        0.522994         2.49731
LJ           1.73399        -6.44396        0.383439
LJ          0.457595       -0.343682         3.83494
LJ         -0.108669         0.31286         2.43497
LJ           3.60642        0.241624         1.41205
LJ           2.63034        0.734392         1.87677
LJ           2.80371         1.11053        -3.82401
LJ           3.62572         0.61786           2.401
