108
#Comment!
LJ          0.604642          5.0214         -1.2551
LJ            3.0377         2.03723        -6.04411
LJ           4.32447        -2.46481        -6.44764
LJ          -4.06522         1.40556         5.16028
LJ          -3.80889       -0.768153        -4.17839
LJ           5.41228        -1.59905         5.02289
LJ           4.05196        -1.44817         6.24845
LJ           2.45871          -4.799       -0.812192
LJ          -3.85892         1.40085         5.97534
LJ           3.54047        -5.50004        -3.22864
LJ           5.80068         1.50151        0.291278
LJ         -0.351431          2.3098         4.44664
LJ          -2.05394        -3.01458         5.58927
LJ           4.00793         2.66924         3.44776
LJ         -0.190217         1.91589          5.3773
LJ         -0.229708         4.71806        -5.84498
LJ          -4.24314         5.61671         5.45071
LJ          -2.62824         3.50968        -2.11085
LJ           2.18396         1.34959        -1.13696
LJ          -2.45161         2.35846        -6.40866
LJ           5.20555        -1.54402        -4.42276
LJ          -6.10888         2.92262        -4.74059
LJ            5.1253        -2.18458         -5.1986
LJ          -5.81487         6.07788         0.52193
LJ             2.976        -5.31364         4.93397
LJ          -6.39297        0.657658        -4.56661
LJ          -3.30018          4.4933        -1.01934
LJ         -0.354359        -5.14111         -4.4635
LJ           3.00837         -6.2461        -2.69744
LJ          0.732819        -1.23426        -5.49919
LJ          0.514701         -1.1886        -4.04229
LJ           1.89403         5.52189          2.5723
LJ        -0.0973565        -3.01743         5.91568
LJ          -3.35272         3.15123        -5.80006
LJ          -1.38108        0.845218         6.13565
LJ           4.81241        -6.32598         4.13261
LJ           5.86716        -6.30705         5.39254
LJ          -2.71259         5.48421       -0.590279
LJ           -4.6843        -4.88782         3.15617
LJ         -0.546796        -3.14006         0.28533
LJ           3.67524        -3.21516        0.810246
LJ          -1.53427         2.30411        -5.03969
LJ          -1.04223         6.33664        0.739622
LJ        -0.0304619         4.06659       -0.998628
LJ          -1.26092         5.38678        -4.33654
LJ          -1.77911         2.30491         1.19807
LJ         -0.679989        -4.40516        -2.30462
LJ           2.52158        0.507891          2.6719
LJ           2.19234        -2.19105       -0.591139
LJ           5.65551        -1.80747        -5.49729
LJ           1.20293        -4.41027         3.54379
LJ           1.37894       -0.319998        -4.79414
LJ          -2.92843        -6.36343         1.87603
LJ          -3.59654        -6.09236         3.20756
LJ          0.427456       -0.574455       -0.766458
LJ         -0.550287        -1.41925         1.29752
LJ           3.55222         1.94791        -4.83424
LJ           3.11734         3.13202         2.30819
LJ          -5.44019        0.122855        -1.64263
LJ          -4.66321        0.982698         -4.3574
LJ          -4.35243        -3.78434          1.1709
LJ           3.80578         4.97015       -0.760301
LJ           1.27354        -2.40772          4.1889
LJ          -3.23092        -2.12785        -5.69139
LJ           -3.6487         3.60644        -3.14694
LJ          -2.59944        -2.09024        0.478818
LJ          0.619109        -5.56533        -3.08187
LJ          -2.27439         -3.2111         1.43846
LJ          -4.66108        -4.15134        -3.53461
LJ          -2.68182          6.2159       -0.699581
LJ          -1.76638        -5.71891        -3.00784
LJ          -4.27498         2.27416       -0.304675
LJ          -2.82113        -3.85082         1.30479
LJ           4.23293        -1.43333        -2.93764
LJ          -4.95137         5.02752         5.57763
LJ           6.44601        -4.61464         4.49874
LJ         -0.737968         4.90661        -3.92031
LJ           2.02377         -3.5409        0.272377
LJ           6.00862        -3.33294         6.19817
LJ          -1.80321         3.95929        -4.73684
LJ           2.19054        -5.14007          2.9727
LJ           -4.4528        -3.74565        -2.18816
LJ           5.49785          2.0705         5.07185
LJ          -2.04385          5.9712        -3.69454
LJ          -2.36823       -0.914125         2.50122
LJ           1.41002        0.869429         2.78006
LJ          -0.46504        -4.70717         2.66556
LJ          0.291128         3.57059         6.19929
LJ           6.38205       -0.739831         3.97317
LJ          0.644257        -2.31347        -4.99504
LJ           4.26682         2.45367        -1.19947
LJ          -4.90772        -1.31187        0.271616
LJ           5.06209         1.43272         5.20302
LJ          -1.82182          0.6564         4.00594
LJ          -3.45138         5.86518        -5.47057
LJ           4.48557        -6.36681         1.10678
LJ           3.92436          -5.318        -5.87149
LJ            -2.595       -0.665593         4.44123
LJ           2.63724         2.49351         5.19716
LJ          0.955318       -0.161811         6.42279
LJ            -3.477       -0.737023         6.28036
LJ            5.8933        0.378764         5.11379
LJ           4.88432         2.51416          2.1274
LJ           -2.0081         6.32007        -4.56184
LJ          -2.74091        -4.76036        -2.79823
LJ           2.82039        -4.02174        0.484295
LJ            4.7446         1.66414         0.52652
LJ           2.57716        -1.85754         2.12776
