108
#Comment!
LJ           2.65194        -2.04412        -5.48639
LJ           2.35356         2.69872        0.314704
LJ          -5.20925        0.721654       -0.439606
LJ           1.95931         -2.9784        -5.76507
LJ           4.92751        -5.42757         4.97572
LJ          0.815216        0.238036         1.85291
LJ           5.84248        -1.57343         5.88068
LJ            1.9463        -3.15533       -0.566351
LJ          -4.66941        -6.10753        -1.28772
LJ          -1.01416        -6.12706        -2.44944
LJ           3.83567        -5.61188        -4.51025
LJ           -5.4874         1.01255         2.14691
LJ          -2.67708        -4.00858        -5.26844
LJ          -2.87018         2.44575       -0.310056
LJ           6.04686        -2.43831         1.01403
LJ          -5.81378        -1.47754        0.186479
LJ          -4.25365         -4.9522        0.284032
LJ          0.268507        -2.29913         1.20261
LJ           1.15727        -1.16666          4.1319
LJ           5.96542         3.02025        -2.85244
LJ          0.180193        -3.62514        0.489505
LJ          0.145534        -3.24596        0.754007
LJ          -1.76456         2.55487         5.85028
LJ           2.64714         6.13295         2.49509
LJ           3.06006        0.401458         0.72938
LJ           2.27155         2.58488        -1.98437
LJ          -2.23756        -1.33911         4.25652
LJ           3.42662        -6.12308         3.59657
LJ          -2.97876        -4.97671        -3.33492
LJ           4.12229        0.618214         3.77048
LJ          -3.09557        -5.31487         -2.2482
LJ           3.04525          3.2082        -1.36577
LJ            4.4372         5.59273         1.51902
LJ           2.90756         1.10129         -4.8637
LJ            4.0559         4.48452        0.407814
LJ          -1.39537         4.06504       -0.754877
LJ          -1.84628        -5.36941         4.38387
LJ           2.55627         -1.4069         2.70178
LJ          -2.36195         4.73826         3.16747
LJ           -2.5707         5.95924       -0.335873
LJ          0.118897        0.684333        -5.69809
LJ           2.78206         -4.1116         4.67253
LJ          -3.76213       -0.565401        -3.00432
LJ          -5.09291       -0.990228        -5.08173
LJ          -3.03108        -4.34932          2.6401
LJ          -3.98249       -0.974345         -2.7922
LJ         -0.795529         5.71611       -0.146049
LJ            -4.073         -5.2965         4.65694
LJ          -4.28677        -4.86759       -0.905472
LJ           1.93652         2.87202        -3.86568
LJ           4.05452        0.326365        -5.59923
LJ           6.35016        -5.33836         -3.5333
LJ           1.12499        -1.42755         2.06444
LJ           3.57879        0.741476         3.21127
LJ          -5.32354         5.88782          2.1723
LJ           2.59344        -3.61245        0.535567
LJ          -1.74559        -3.95614         5.63848
LJ           5.67957        -6.40432        -2.43747
LJ           5.08256        -2.23498         5.16886
LJ          -4.36987        -2.25956        -5.21594
LJ           3.24568         5.12535        -3.20811
LJ           1.43452         4.31913        -1.25876
LJ           6.43379        -2.64245         6.39245
LJ          -6.11548        -1.13183         4.10493
LJ           3.25116         2.12683        -5.87056
LJ          -1.26187        -6.36267        -1.76014
LJ           6.45355         1.35851       -0.119724
LJ           3.08053            6.14          5.0499
LJ          -3.24511        -6.16251       -0.647359
LJ           1.07686         1.13108         5.01321
LJ           2.05687          5.8972        -5.61019
LJ          -4.14811        -2.60834         2.15989
LJ         -0.926731       -0.132275         1.82581
LJ          -5.30194         -1.0176       -0.470992
LJ          -5.77119         3.45123        -5.01636
LJ          -4.24751        -1.33234          1.5147
LJ          -4.06326        -6.34802        -3.92365
LJ         -0.925694         -3.1646        -2.32052
LJ           5.77111         2.87108         2.94698
LJ           4.91801        -2.43856        -5.08432
LJ          -5.69299         2.71347          5.9583
LJ          -1.07815        -3.68466         2.10564
LJ          -3.43052        -3.81888         2.13207
LJ           5.38893         4.44139         5.00826
LJ           2.18005         -3.0864        0.206905
LJ         0.0818506         5.31954         1.60991
LJ            3.7807         5.60124        -5.05581
LJ           5.46012        -1.38457         1.11756
LJ           5.01083        -4.82858          1.0128
LJ           3.13014         3.01288        0.817235
LJ           1.98006        -4.33273         5.39494
LJ          0.751725        -5.23406        -5.99922
LJ          -1.97692         4.38295         1.40814
LJ          -3.20872         6.09293         4.26436
LJ           -5.3989         3.35531         3.52198
LJ            1.7911        -1.76297         2.72866
LJ          -4.95553        -3.05648        -4.69724
LJ           6.43176         2.55538        -1.40119
LJ            1.8453         3.99839         2.28123
LJ           3.06624         2.28696        -5.74586
LJ           -4.7192        -5.34373        -3.09326
LJ         -0.376842        -4.25287       -0.839802
LJ           1.17591         3.89069       -0.988001
LJ          -1.95405         4.70661        -4.29869
LJ           2.36777        -3.12354        -2.34054
LJ          -5.22465        -1.19996        -5.90744
LJ           6.09379         4.17099        -5.69985
LJ           2.88441          2.4878         3.40941
