108
#Comment!
LJ          -3.66145        -3.67763        -3.20498
LJ            -2.023        -2.09679        -3.13684
LJ           -3.0009        -2.00567        -2.50517
LJ          -1.03074         -4.2644        -1.43883
LJ         -0.272344        -3.37618        -3.06378
LJ           1.03936        -2.52018        -4.11535
LJ          -1.35098         -1.7887        -1.43287
LJ        -0.0614475        -2.44279        -2.09355
LJ           2.75124        -3.07065        -3.70785
LJ           1.22448         -2.1616        -2.26152
LJ          0.654224        -3.67098         -3.2044
LJ           1.44607        -3.17097        -1.54458
LJ          -3.76076        -1.15448        -1.93929
LJ          -1.80451       0.0470036        -3.32343
LJ          -2.62568         1.06261        -1.75274
LJ          -2.63919        -2.01059         -1.2503
LJ         -0.193172       -0.610617        -2.36041
LJ         -0.129385        -1.09288        -3.61375
LJ          -1.03097     -0.00451285        -1.80114
LJ          0.556582        -0.64989        -1.55751
LJ           1.24504        -1.10405          -3.046
LJ           1.11445        0.511778         -2.1947
LJ           1.52097       -0.343107        -1.39649
LJ           3.45843       -0.806249        -1.44049
LJ          -3.71988        0.787555        -3.80775
LJ          -3.53783         2.00379        -3.21705
LJ          -3.31145        0.951055        -2.60501
LJ          -1.62231         1.09269        -2.48878
LJ            -2.238         1.34765        -4.07487
LJ         -0.965714         1.83621        -3.54011
LJ          -1.93768         2.24408        -2.91725
LJ         -0.464987         1.10619        -2.23175
LJ          0.249052        0.336564        -1.74001
LJ          0.974015         1.62565        -3.23096
LJ          0.107734         2.26309        -2.30968
LJ           2.07393          1.6265        -2.08185
LJ          -2.29817        -4.11521       -0.140165
LJ          -1.77959         -3.0998        -1.26598
LJ          -3.48148         -3.8956       0.0470982
LJ          -1.83304         -1.9878        0.219072
LJ         -0.208769        -2.93591       -0.974018
LJ         -0.487952        -1.29536        -1.65421
LJ          -2.07028        -1.28604       -0.838308
LJ       -0.00867786         -2.5046     -0.00862615
LJ          0.747495        -2.41126        -1.39847
LJ           3.74205        -1.23417       -0.343756
LJ           1.31116        -1.98333       -0.490048
LJ          0.916834        -2.98881        0.612269
LJ          -3.45745       0.0327914        -2.09836
LJ          -2.02441        0.223383        -1.12064
LJ          -4.65476        0.589573        0.168395
LJ          -3.26894        -1.00861       -0.757158
LJ          0.286738        -2.16759        -3.33523
LJ         -0.625041        0.716781        -1.11239
LJ         -0.460962       -0.463204        0.030617
LJ          0.122336        -1.40645         0.33842
LJ           2.78762        -1.75157        -1.07581
LJ           2.39836        0.552448        -1.64571
LJ         -0.137165       -0.806672       -0.850911
LJ          0.960587       -0.905801       -0.530267
LJ          -3.25007         1.76085       -0.349291
LJ          -1.19885          1.7216        -1.77947
LJ          -4.64782         3.13378       -0.356792
LJ          -2.55366       -0.108159       -0.314037
LJ          -1.22076        0.287555       -0.278196
LJ         -0.173907         2.34128         -1.2142
LJ          -1.38936         1.42016       -0.349298
LJ          0.189524         1.91365       -0.325703
LJ          0.968415        0.926947        -1.09482
LJ           1.14414         3.18592        -0.43713
LJ          0.574628          1.4265         0.73769
LJ           1.89823         2.19059       -0.181505
LJ          -2.45791        -2.60264        0.801862
LJ          -2.17136        -1.82182         1.77555
LJ          -2.88169       -0.993699         2.84947
LJ          -2.51606        -3.88655         1.55121
LJ          0.353124        -3.94812         2.04882
LJ         -0.754444        -2.75136        0.856224
LJ          -0.12227       -0.728659         2.77444
LJ          0.826816        -3.01417         2.01814
LJ          0.643702        -3.80892         1.10884
LJ           2.41377        -2.18843        0.496696
LJ           1.56325        -2.60527         1.34106
LJ           1.69238        -3.53865         1.94572
LJ          -3.08581        -1.04252        0.502862
LJ          -3.31864        0.105032        0.433672
LJ           -2.3332        0.830261         1.87903
LJ          -2.35363       -0.801867         1.58059
LJ          -2.20551        0.254975        0.704494
LJ         -0.562971       -0.561672         1.54239
LJ          -1.47602       -0.555952         2.20196
LJ           1.09891        -1.18634         3.75483
LJ            1.1524        -1.94538        0.619718
LJ           2.38818         1.16061      -0.0542101
LJ           1.87761         1.13364         2.33381
LJ           1.89003       -0.571844        0.914539
LJ          -2.69606         1.19767        0.346448
LJ          -2.15485         2.44207        0.944929
LJ           -2.0891        0.878163         3.19653
LJ           -1.5913         1.48839        0.995446
LJ         -0.256076        0.402479         1.42284
LJ          0.246024         2.86168         0.94565
LJ         -0.596281          1.9102         2.84227
LJ         -0.636235        0.584164         3.05636
LJ           1.73676         1.50099         1.02013
LJ           2.86688         1.23664         1.34616
LJ          0.576022        0.692495         2.64726
LJ           2.91361        0.817323         2.88251
