108
#Comment!
LJ             3.858         2.54779          5.8234
LJ          0.341131        0.413656        -0.74091
LJ          -4.23843         1.01115         5.21945
LJ           5.18163         6.25092        0.740112
LJ         -0.662455         1.79771         3.84335
LJ           1.06305        -3.57418         3.74293
LJ          -4.55402      -0.0382852        -6.38872
LJ           2.06208       -0.388333         -2.4102
LJ          -5.12743         1.97151         3.99897
LJ           2.43402         -2.6255         1.42929
LJ          -4.78022        -3.10467       -0.411125
LJ          -4.32305         3.51969        -1.46312
LJ          -6.11504        -1.64168        -3.93723
LJ          -3.52887        0.116853         5.75832
LJ          -1.33952          2.6765         6.27791
LJ           6.20051         3.92084        -1.46956
LJ           -3.1386        -1.79124         0.87364
LJ           -5.3619         3.65141        -3.13963
LJ           3.01455         2.15077         2.98288
LJ           1.42871        -4.82187        0.479962
LJ          -5.25187       -0.185759        -3.42972
LJ          -2.45878         1.90483        -3.48552
LJ           4.12783         4.77019        -1.00119
LJ           1.01894        -3.31503         3.89565
LJ          0.392588         2.22172        -1.79148
LJ          -3.66185         -4.6139        -5.87471
LJ           4.40025         3.98874          6.2473
LJ          -6.33319        -2.23126         4.03646
LJ           2.87683         2.57467         1.26063
LJ          0.687545        -4.72758        -6.16168
LJ           4.17596        -3.18249         4.18175
LJ          -1.38935        -6.37432         6.40817
LJ          -4.34748         1.21465         3.43649
LJ            -4.719        -6.44021        -6.04486
LJ          -4.92095         2.91177          4.5123
LJ           -5.8692        -3.27543        -3.33821
LJ           1.33627         2.18304         1.37903
LJ          0.415342        -4.87379        -5.08473
LJ         -0.915062         6.13925         -3.3966
LJ          -1.85936        -2.60948        -3.70709
LJ          -4.74592         3.83792         2.16978
LJ           2.27635          4.6035        -5.56052
LJ          -2.25148        0.494317       -0.096301
LJ           6.18815         3.35516         5.46345
LJ          -1.56202        0.284423         6.00176
LJ          0.786424         5.94666        0.696063
LJ          -5.61435        -1.75128         1.13917
LJ           3.93624        -5.31207         3.76658
LJ          -2.32113        -1.24311         2.38389
LJ          -1.12774         1.28501        0.979289
LJ         -0.510468        -5.66606         1.04507
LJ         -0.933701         4.64347          4.0835
LJ            5.8649         4.43864         2.95329
LJ          0.952548         2.16353         2.18558
LJ           6.20739        -1.67018        -3.27964
LJ           2.57627         4.91011         -5.2166
LJ          -2.61203         5.93594         5.96994
LJ           1.32912        -6.24035         2.89171
LJ         -0.238622         4.13215       -0.177234
LJ           1.40462        0.388824       -0.314602
LJ           3.27993         2.20103        -4.05667
LJ          0.352959         4.07628        0.679133
LJ          -6.26827        -3.99868        -5.40763
LJ          -1.36363         2.10424        -6.09795
LJ          0.753828        -4.94952        -5.88022
LJ          -1.98733          1.0076        -5.34851
LJ           4.91331         3.08923          4.5231
LJ           1.08833        -1.02321         3.67774
LJ           4.60001       -0.118922         4.01635
LJ            2.6417         2.15299       0.0726517
LJ           5.64503         2.16577         1.32768
LJ           6.26216         4.93713      -0.0180632
LJ           5.43892         5.80211         6.25456
LJ           4.98643         5.83677         3.40413
LJ           3.63151         5.95725        0.515804
LJ           1.38317         5.64335        -5.43542
LJ         -0.281295         4.29084         1.93157
LJ           6.28707        -1.76356         -3.9917
LJ             5.781          4.1227         4.18592
LJ           4.44894         5.98966        -2.05445
LJ          -2.37629         4.55548         1.46811
LJ           4.33039         2.36202        -6.20187
LJ           2.52061         -2.0463        -2.20907
LJ         -0.333718         1.23818        -6.29205
LJ           2.50695          1.7719        -1.65912
LJ           1.65454        -2.50689         2.96817
LJ         -0.450478         -1.5966        -3.58509
LJ           4.44856        -2.27773         6.06386
LJ           2.33087         2.50943       -0.216139
LJ           3.11104         4.08171        -3.91402
LJ          -4.30831         5.72909        -3.76122
LJ           1.84888        -3.55636          3.5156
LJ         -0.815183         2.61726          5.3272
LJ           2.75776         4.57769        -6.11704
LJ           3.97626        -3.33114          5.6231
LJ          -6.23164         5.78836        -1.32085
LJ           3.80168        0.782627        -5.33436
LJ          -5.31587         4.05886         2.69124
LJ          -2.06277         5.05538        -3.58241
LJ          -1.97252       -0.617625        -2.23909
LJ          -5.29607        -3.36181        -2.98323
LJ          -6.07067         5.48084        -6.27717
LJ           1.03677         5.91308         2.57235
LJ           3.97569        -3.38202        -6.21002
LJ           3.31661        -4.56118        -4.38532
LJ         -0.468723        0.101701          3.8176
LJ           4.29059       -0.790422        -3.81961
LJ          -4.69523         2.98088        -2.58604
