108
#Comment!
LJ         -0.512405         2.01937        0.241214
LJ           2.99047         4.10082         4.41504
LJ           1.63035        -3.56392         6.01521
LJ          -2.62999        -3.07297        -6.28752
LJ           1.79914        -5.41059       -0.571908
LJ          0.204731         4.24459          3.5539
LJ          -3.52817        -5.81586        0.633562
LJ           2.67384        -5.29281         1.13718
LJ            4.1062        -4.94024        -6.30468
LJ         -0.288069        -1.62984         -6.1395
LJ           3.57206         5.60478         -6.4297
LJ          -2.39131        -6.03006        -3.32104
LJ          0.847981        -4.17304       -0.193993
LJ          -2.58375        -2.42947         5.51999
LJ          -3.86381        -3.42433         5.02898
LJ           3.83965        -1.03641         5.26484
LJ          -6.07642        -1.95089         4.05625
LJ           3.37209        -1.79867        -1.56214
LJ           4.24918         0.16423         -3.3245
LJ          -3.27774          5.4508       -0.396404
LJ          -3.36138         5.10223         2.23205
LJ         -0.278633        0.477822        -5.76556
LJ         -0.751818         1.17546      -0.0775417
LJ           2.08384        -0.51008        -4.42689
LJ            2.2866         1.88041         1.44543
LJ          0.139516         3.80792         2.89304
LJ          -2.15515        -3.79514        -3.23689
LJ           -3.4144         -5.2703           3.325
LJ          -2.08369         3.49204         2.95292
LJ          -3.31892         1.19732         1.95029
LJ           4.74929         0.90785         -5.9916
LJ          -6.34479        -2.23006         4.15057
LJ          -6.31555        -4.55673         2.76208
LJ            2.6064         4.69533       -0.628466
LJ          -4.02226         -2.8687        0.858357
LJ          -1.61884        -2.48998          1.8615
LJ          -3.16525        -2.33755        0.139833
LJ           -6.1391        -2.96883         2.53289
LJ          -6.38593        -2.95495        -1.56356
LJ          -3.78392        0.192254        -1.77492
LJ           3.50491      -0.0217921         1.79071
LJ          -4.69195         -6.0067       -0.612183
LJ           1.35066        -5.62935         2.57759
LJ          -6.09457         1.56947       -0.139163
LJ        -0.0678808        -1.57582         5.65248
LJ          -3.32932         3.74063         6.01615
LJ           2.21922         1.68755         5.30216
LJ           2.01358         6.13858       -0.503756
LJ           3.77449         2.33877        -5.02673
LJ           2.77035         4.10045         4.38052
LJ          -4.24675         0.28732        -3.44496
LJ           5.21864        -1.99105        -0.15515
LJ           5.20701       -0.923945         3.29268
LJ          -3.33715         1.77785        -1.11191
LJ          0.437491         3.71587        -4.65623
LJ           3.99175         1.82013         3.52852
LJ          0.303092         3.29676         1.42387
LJ           6.33001        -5.65568          -4.585
LJ           1.89065         4.25739       -0.103927
LJ          -4.70918        -1.89269        -1.26429
LJ            2.1612         3.95198         2.91865
LJ           4.65037         5.65885       -0.609165
LJ          0.626654         5.46467        -5.08378
LJ          -3.38852         1.31318       -0.972322
LJ         -0.715492        -5.50638         1.96933
LJ          -1.44577         1.68508        -4.19509
LJ           2.01424       -0.774846          5.8573
LJ          -3.99398         4.49155         3.42345
LJ          -4.21573        -2.42907        -3.65546
LJ          0.115626          3.9433        -3.22665
LJ           2.29687        -1.55187         2.31807
LJ         -0.339358         3.69398        -4.53169
LJ           5.46862        -3.15779        -1.52628
LJ           2.25133         1.39405         -3.7772
LJ           3.57562         4.06024         2.67888
LJ        -0.0892469        -3.53706         0.23986
LJ          -1.31841         6.29322         5.99528
LJ           4.28745        -6.07721        -2.92376
LJ          -1.15444         1.50717          3.9004
LJ           4.73788          3.2342        -2.06051
LJ           4.19134         4.44648         4.86842
LJ          -2.02614         4.35694         2.52093
LJ           3.98921         -3.0427        -6.10062
LJ         -0.372272        -3.49138         -1.8291
LJ          -1.36565        0.101886         1.26707
LJ           4.66606        0.557023        -2.38674
LJ            4.1435        -5.64022         4.54273
LJ           2.61065         5.97281        -4.36444
LJ           1.78224        0.515813         3.44333
LJ           1.33555        -2.78943        -2.64218
LJ           4.96064         3.07302        -3.42171
LJ           3.53452        -2.89782         5.15768
LJ          -5.11619        -3.81045         3.33634
LJ          -4.33736        -3.27569        -3.19489
LJ          0.910472          1.1277        -5.06882
LJ          0.837357         2.81686        -2.86111
LJ           3.43027         4.05984        -6.35929
LJ          -5.96053         2.45466        -5.61618
LJ          -3.92612         5.13906        0.499343
LJ          -4.63265        -3.60175      -0.0183955
LJ          -2.86177        0.140331        -3.06398
LJ          -1.67063         6.26723        -5.82046
LJ          -5.92121         6.12238         6.05258
LJ           2.25979         2.89155         -3.7649
LJ           4.78241          3.1691       -0.228602
LJ          -3.01247         1.84328         3.73558
LJ          0.252599         1.22991      -0.0833437
LJ           -5.7356        -1.41475        -2.43398
