108
#Comment!
LJ           1.32212      -0.0124878        -3.21221
LJ           4.77278        -1.24507         1.12521
LJ           2.12376       -0.878852         1.35339
LJ           5.03564         3.87107         1.79008
LJ          -2.87973        -4.37482         5.32956
LJ           3.25945         5.92707        0.764493
LJ          -2.19996        -1.27582         4.59716
LJ           4.86996        -1.88587         -3.4798
LJ        -0.0276119         5.98378         1.27702
LJ          -4.08321        0.162345        -5.76399
LJ          -4.91797       -0.886708        -5.59333
LJ          -3.87487         1.43619       -0.998991
LJ          0.768269         4.02459         -1.3992
LJ          -4.80598          1.1748        0.910697
LJ          -2.23459        0.759808        -5.64998
LJ          -1.00528        -4.15072         1.32339
LJ          0.975959        -4.95061          5.9538
LJ          -1.27657          2.4114        -4.39389
LJ          -3.86884        -2.49521         5.28853
LJ          -3.40657         1.03665        -4.64262
LJ          -1.96074        0.717639         2.55008
LJ           4.53199         5.97496         1.64541
LJ          -5.72321        0.778456        -4.26444
LJ           1.24463        -5.18764         3.53156
LJ          -2.04708         -3.9535         1.14411
LJ           5.48525        -4.95334        -3.29351
LJ          -5.28696         4.02884        -2.47229
LJ          -6.27785        -1.43701        -3.82685
LJ           1.22525        -4.79433        0.457507
LJ           1.93448        -0.16786         5.27315
LJ           1.97534         3.86331        -3.42856
LJ           4.29551         -6.0876       -0.444469
LJ            6.0225        -2.73563         4.11966
LJ           3.39303        -2.10443       -0.708624
LJ           5.02057         5.31206        0.963673
LJ         -0.164907       -0.858508         5.91829
LJ          -1.49545          5.8681         4.09213
LJ          -4.20135       -0.178932         1.98679
LJ          -2.77123         -1.3266         6.21594
LJ          -6.25266         4.58479      -0.0498756
LJ           2.11483        -3.66417        -3.76419
LJ          -2.15103        -5.87452         4.87064
LJ          0.655571        -4.34507        -3.59122
LJ          -5.22004        0.506102         2.03713
LJ          -5.13283         -6.2802        -5.22413
LJ            4.9954         2.27001         1.12281
LJ          -5.53417        -2.96269       0.0795668
LJ          -2.31494         1.00022         6.14572
LJ          0.454714       -0.482592         5.22597
LJ           6.14671        -2.18337        -2.53758
LJ         -0.863363        -3.93008       -0.542247
LJ          -1.72287        -4.63847        -2.68864
LJ          -1.54144         1.98635        -1.96391
LJ           3.19208         5.53328        -1.03527
LJ            3.5681        -6.30628        -3.02955
LJ          -6.33095         4.51528         5.20661
LJ           1.75304         3.55165        -4.60879
LJ          -3.79034         5.72051        -1.32389
LJ           1.11758        -2.98353        0.196057
LJ           6.12811         4.34536        -1.06861
LJ          0.461192        0.155896         4.34036
LJ          -3.59433          3.9931         4.20656
LJ          -5.53009         5.46223         5.67991
LJ           3.39699         6.26498         1.85754
LJ            6.2225         -4.1651         3.49399
LJ           3.41987        -4.90324        -3.20139
LJ            4.3022        -1.73495        -2.10862
LJ          0.856881         2.04042        -2.02817
LJ           5.18559        -1.23713        -2.68751
LJ          0.174412         4.12103         3.82535
LJ          -2.98585     -0.00321829         1.42131
LJ          -5.10969       -0.953728         4.55833
LJ          -6.37074        -2.05962       -0.802072
LJ          0.296732        -4.58772        -5.24885
LJ          -3.35841        -1.14518        -3.87783
LJ            2.6986         1.15597        -3.43822
LJ          -6.06961        -6.06247        -3.12652
LJ         -0.814336        -1.37868         5.03031
LJ          -3.95495        -6.17302        -4.77744
LJ          -1.19186        -3.65759        -5.23892
LJ         -0.744277        -1.56131        -2.85637
LJ            5.9558       -0.925219        -3.25761
LJ           3.11217         1.82521        -2.69917
LJ          -3.30523        -0.39107         4.66661
LJ           -1.4331         4.03098         5.29977
LJ           -3.5263        -0.49136       -0.649947
LJ          -2.48097       -0.724878          2.1074
LJ            6.0542         1.24017         4.53124
LJ           4.27975       -0.528688        -1.59763
LJ          0.191583         4.25135        -2.50914
LJ          -4.37468         3.50359         4.62432
LJ           5.41678       0.0302895        -2.83462
LJ          -0.90508         4.95808         6.43583
LJ              2.31         1.86497         2.73994
LJ          -3.23878        -5.82949        -5.44089
LJ           4.94895        -1.32198        -1.37585
LJ          -1.20831       -0.894575         4.00574
LJ        -0.0794814        -3.02415          1.0813
LJ         -0.201647         -6.2827         5.78167
LJ           4.42508         4.12848        -0.87938
LJ           -3.6422        0.704405         1.93122
LJ           3.81072        0.142247        0.505496
LJ           4.29515         1.30857        -2.13011
LJ          -2.87912       -0.420882         0.29905
LJ          -5.61494         3.90649         0.51018
LJ           4.39424         2.20566         2.49344
LJ      -0.000579251          -5.117        -1.41466
LJ          -6.00276         1.13878        -5.35152
