108
#Comment!
LJ           1.70667       0.0899166        -3.21904
LJ           4.89153        -1.19917        0.293725
LJ           1.74075        -1.13028         1.47386
LJ           5.09861         4.25685         2.19589
LJ          -2.47231        -4.02448         4.65458
LJ           3.15238         6.09398        0.756836
LJ          -1.76611        -1.16142         5.06303
LJ           5.15165        -1.85526        -3.20577
LJ          0.759313        -5.91222         1.02557
LJ          -4.67792       -0.185082        -5.59078
LJ          -5.50234       -0.843757        -5.89568
LJ          -4.00913        0.744296        -1.45498
LJ          0.607641         3.28181         -1.9712
LJ          -5.45132          1.9087         1.11167
LJ           -2.0401        0.598607        -5.61897
LJ         -0.554994        -4.63434        0.650248
LJ            1.4043        -5.27449         5.90483
LJ          -1.43985         1.54409        -4.16735
LJ          -4.25864        -2.26993         4.78849
LJ          -3.22162       0.0678167        -4.61752
LJ          -2.08125        0.041636         2.64984
LJ           4.35645         6.30471         1.48161
LJ          -5.39633        0.678948        -3.89467
LJ            1.2842        -5.47172         3.70481
LJ          -1.88102        -4.42595         1.68563
LJ           5.31324        -4.41776        -3.90769
LJ          -5.12438         3.50654        -2.83522
LJ          -6.14181        -2.19866        -3.88034
LJ           1.34073        -3.99405        0.213242
LJ            1.7575       -0.334407         5.86507
LJ           2.10767         3.71722          -3.352
LJ           4.60906        -5.72137       -0.799527
LJ           6.04014        -2.54597         4.33152
LJ           3.57861        -1.66246       -0.557092
LJ           4.64614          5.2642        0.703147
LJ          0.131463       -0.778939         6.21714
LJ         -0.576572          5.8064         3.79165
LJ          -4.59169     -0.00631916         2.25894
LJ          -3.40644        -1.44656         6.34489
LJ           6.22644         4.72617       -0.371049
LJ           1.26807        -4.26003        -4.56613
LJ          -3.09561        -6.38821         5.19646
LJ           0.11026        -4.66771         -4.0716
LJ          -5.30299        0.496301         1.45695
LJ          -4.48487        -5.30187         -4.6624
LJ           5.18683         2.80564        0.941175
LJ          -5.80672        -2.71705        0.716467
LJ          -2.04927         1.42124         6.27841
LJ         0.0679323       0.0705365         4.92044
LJ            6.1074        -2.69028        -3.27091
LJ         -0.311213        -4.15386       -0.721965
LJ          -1.51372        -4.48212        -1.92263
LJ          -0.96793        0.969554        -1.78451
LJ           3.24295         5.92415        -1.06274
LJ           4.01609         -5.6443        -3.37538
LJ           5.90022         4.50753         5.12932
LJ          0.957031         3.76567        -4.66747
LJ          -3.53092          5.9206        -1.09326
LJ          0.885393         -2.5622        0.862511
LJ           5.82921         3.58646       -0.812015
LJ           1.21844       0.0276908         3.61063
LJ          -3.38938         4.34844         4.63779
LJ          -5.97256         4.89113         5.59633
LJ           3.56445         5.96933         2.43836
LJ           -6.4339        -4.15804          3.5966
LJ           3.53573        -4.77282          -3.667
LJ           4.43712        -1.65952        -2.32865
LJ          0.664306         1.81169        -1.33629
LJ           5.53978        -1.26406        -2.33356
LJ         -0.405891          4.3014         4.17347
LJ          -3.54981       -0.230553         1.62755
LJ          -5.44534        -0.78935         5.26426
LJ          -6.42627        -1.55097       -0.358248
LJ           1.05732        -5.22704        -5.60023
LJ          -2.92423       -0.843955        -3.68422
LJ           2.86023         2.11815        -4.30135
LJ          -5.33226         -4.7323        -2.09287
LJ         -0.553422        -1.43254         5.13029
LJ          -3.16231          -6.188        -4.85969
LJ         -0.593184        -3.20401        -5.73215
LJ          -1.28816        -2.00857        -2.36987
LJ           6.31012       -0.421603        -2.71328
LJ           3.19227         2.71621        -3.21839
LJ          -3.54977       -0.303548         4.16194
LJ           -2.1313         3.86573         4.96465
LJ          -3.75269       -0.496072       -0.899114
LJ          -2.89146        -1.00386         1.95114
LJ           5.52402        0.430472         3.94852
LJ           3.86853       -0.178656        -1.20514
LJ         -0.231689         3.79349        -2.64708
LJ          -4.60907         3.08081         5.07521
LJ           4.99758       -0.351318        -2.80985
LJ          0.283467         4.92905         5.75021
LJ           2.46869         1.94993         3.30926
LJ          -2.90222         -5.7953        -6.07859
LJ           5.23537       -0.695599        -1.40155
LJ          -1.40743       -0.432964         3.91294
LJ         -0.234758        -2.54561          0.1059
LJ         -0.134256         6.09051         5.27192
LJ           3.20069         3.61684       -0.608218
LJ          -3.29895        0.868254         2.61384
LJ             4.235       -0.106134        0.787758
LJ           4.25024         1.30522        -1.61151
LJ          -3.30437       -0.612844        0.559993
LJ          -5.49186         4.23416        0.146092
LJ           4.00529         2.10384         3.49334
LJ          0.732309        -5.54678        -1.39985
LJ          -6.04656        0.972411         -4.7994
