108
#Comment!
LJ          -3.87614        -3.85845        -3.25074
LJ           -2.1803         -1.8748        -3.17155
LJ           -2.9833        -1.97536        -2.56083
LJ         -0.887437        -4.41783        -1.27483
LJ         -0.297776        -3.38095        -3.05923
LJ           1.12211        -2.61612        -4.28018
LJ          -1.42155        -1.78424        -1.32769
LJ         -0.128244        -2.25405        -2.15153
LJ            2.9662        -3.00923        -3.81643
LJ           1.11031        -2.29658        -2.37883
LJ          0.879388        -3.91314        -3.40406
LJ           1.51643        -3.29107        -1.49383
LJ          -3.78574        -1.11893        -1.67045
LJ          -1.86698       0.0626933        -3.43352
LJ          -2.56158         1.13544        -1.70018
LJ          -2.76364        -2.33299        -1.20353
LJ       -0.00405464       -0.531164        -2.44061
LJ         -0.214705        -1.10551         -3.6676
LJ         -0.767964      -0.0869086        -1.74426
LJ          0.753378       -0.789543        -1.62254
LJ            1.3139        -1.16196         -3.0413
LJ           1.14032        0.400095        -2.41467
LJ           1.73941       -0.191483        -1.27878
LJ           3.58493       -0.738988         -1.3678
LJ          -3.79446        0.752062        -3.99369
LJ          -3.71681         1.93497        -3.23054
LJ          -3.31492        0.917091        -2.68095
LJ           -1.4526        0.937831        -2.63283
LJ          -2.47404         1.35441        -4.41783
LJ          -1.28479         1.86284        -3.75593
LJ          -2.02563         2.20517        -2.98962
LJ          -0.37128         1.07503        -2.45158
LJ          0.262227         0.19459        -1.72201
LJ          0.860054         1.63456        -3.31267
LJ         0.0016257         2.34933        -2.18641
LJ           2.16193         1.57068        -2.12958
LJ          -2.21805        -4.28949       0.0835635
LJ          -1.66269        -3.11738        -1.36854
LJ          -3.48461        -4.16321       0.0708155
LJ          -1.71823        -1.74559        0.194937
LJ         0.0851983        -2.98299       -0.991783
LJ         -0.637369        -1.27712        -1.89097
LJ          -2.23638        -1.37617       -0.863179
LJ         0.0122314        -2.46749      -0.0121953
LJ          0.592399        -2.18533        -1.38579
LJ           3.95518        -1.12305       -0.171431
LJ           1.54046         -1.9215       -0.612741
LJ          0.679543         -3.0496        0.675487
LJ           -3.5408      -0.0246818        -2.25852
LJ          -1.91689        0.376046         -1.1172
LJ          -4.82809        0.729544        0.270519
LJ          -3.66066       -0.970411       -0.617773
LJ          0.527626        -2.43995        -3.50338
LJ          -0.87547        0.883756        -1.07955
LJ         -0.495819        -0.43944        0.121316
LJ         0.0524196        -1.19822        0.434899
LJ             3.335        -1.82772       -0.814166
LJ           2.56009        0.654063        -1.62618
LJ         -0.403284        -0.97955       -0.848441
LJ          0.785745       -0.932047       -0.622284
LJ          -3.30674         1.93156       -0.125667
LJ          -1.36254         1.86922        -1.68233
LJ          -4.88596         3.34402       -0.363934
LJ          -2.73123       -0.405596       -0.157488
LJ          -1.39715        0.318839       -0.130186
LJ        -0.0828024         2.56905        -1.10461
LJ          -1.72008         1.61641       -0.253265
LJ          0.237252         1.99307       -0.212113
LJ          0.909674        0.834613       -0.885522
LJ           1.01207         3.52749       -0.281055
LJ          0.536694         1.31734        0.900031
LJ           1.80362          2.4502        -0.23318
LJ          -2.33405        -2.47295        0.757402
LJ          -2.15523        -1.82549         1.80347
LJ          -2.79939       -0.810338         2.99295
LJ          -2.56069        -3.96494         1.43111
LJ          0.528918        -4.11353         2.36837
LJ         -0.980207         -2.7913        0.871656
LJ        -0.0489868       -0.545232         2.99958
LJ          0.796375        -2.91646          2.0136
LJ          0.718526        -4.05672         1.24738
LJ           2.52818         -2.1303        0.288846
LJ           1.64927        -2.61987         1.24538
LJ           1.70264        -3.70041         1.89061
LJ          -3.00502        -1.12512        0.339279
LJ          -3.53061        0.210217         0.34916
LJ          -2.14522        0.958537         1.71032
LJ          -2.43308       -0.781811         1.43431
LJ           -2.3832        0.406105        0.643418
LJ         -0.656483       -0.624092         1.75303
LJ          -1.50195        -0.64168         2.30986
LJ           1.29251        -1.18192         3.99609
LJ           1.04647        -1.95845        0.529233
LJ           2.51767         1.22546       -0.238347
LJ           1.94741         1.33439         2.35958
LJ           1.84267        -0.48807        0.705246
LJ          -2.50693         1.29781        0.202491
LJ          -2.15199         2.40913        0.924044
LJ          -1.85967        0.662602          3.3445
LJ          -1.59693         1.50376         0.79103
LJ         -0.285587        0.320486         1.23439
LJ          0.318635         2.89529        0.882583
LJ         -0.536387         1.87352         2.91551
LJ         -0.683265         0.43387         3.14738
LJ           1.87539         1.51624        0.987291
LJ           2.90899         1.06079         1.38578
LJ           0.59909        0.532192         2.97833
LJ           3.01379        0.782396         2.95588
