108
#Comment!
LJ           1.51272       0.0361509        -3.21563
LJ           4.84447        -1.23882        0.716764
LJ            1.9323        -1.00299         1.41507
LJ           5.06929         4.06167         2.00412
LJ          -2.67586        -4.19628         4.99173
LJ           3.17779         6.00874        0.733692
LJ          -2.02768        -1.23749         4.84897
LJ           4.97651        -1.89561        -3.41363
LJ          0.365916        -6.43021         1.15196
LJ          -4.40112      -0.0242939         -5.6936
LJ          -5.19727       -0.857934        -5.73818
LJ          -3.94426          1.1025        -1.23164
LJ          0.713496         3.64866        -1.64956
LJ          -5.12666         1.57528        0.987127
LJ           -2.1322        0.697989        -5.69268
LJ         -0.758562        -4.40738        0.990705
LJ           1.19438        -5.11057         5.92553
LJ          -1.35662         1.98039        -4.27894
LJ          -4.06623        -2.38996         5.03565
LJ          -3.28017        0.380223        -4.48823
LJ          -1.99422         0.39654         2.60692
LJ           4.48818         6.17309         1.57462
LJ          -5.54149        0.719886        -4.03794
LJ             1.265        -5.32919         3.61705
LJ          -1.99549        -4.18493         1.42623
LJ           5.40328        -4.68411        -3.60286
LJ          -5.20495         3.76751        -2.65498
LJ          -6.23624        -1.79519        -3.83319
LJ           1.29163         -4.4047        0.335162
LJ           1.86368       -0.251026         5.57531
LJ            2.0516         3.79923        -3.37051
LJ           4.45771        -5.89723       -0.623623
LJ           6.09448        -2.95377          4.0861
LJ           3.47394        -1.89422       -0.625648
LJ           4.84772         5.26542        0.807076
LJ       0.000908726       -0.814032         6.11293
LJ          -1.03902         5.84056         3.93324
LJ          -4.25831       -0.112152         2.06445
LJ          -3.08789        -1.38856         6.29006
LJ           6.43723         4.69838       -0.208863
LJ           1.54821        -4.02066        -4.13636
LJ          -2.62539        -6.13389         5.03239
LJ          0.559775        -4.54042        -4.19508
LJ          -5.31435        0.493861         1.75641
LJ          -4.70435        -5.81055        -4.91869
LJ           5.09202         2.53141         1.02693
LJ          -5.66341        -2.84999        0.407168
LJ          -2.17842         1.19522         6.26025
LJ          0.260283       -0.166808         5.03879
LJ           6.17281        -2.47601        -2.89709
LJ         -0.592034         -4.0374       -0.643871
LJ          -1.62179        -4.56107        -2.30884
LJ          -1.25722         1.47701        -1.87365
LJ           3.21155         5.72676        -1.05794
LJ           3.79636        -6.00523         -3.1982
LJ           6.21471         4.48883         5.15181
LJ            1.3439         3.65606        -4.66231
LJ          -3.66015         5.82072        -1.20843
LJ          0.950577        -2.76281        0.526811
LJ           5.96442         3.94257       -0.965655
LJ          0.841505       0.0794701          3.9882
LJ          -3.48163         4.18686         4.41167
LJ          -5.71984         5.20043         5.65487
LJ           3.44457         6.11933         2.19836
LJ           6.29371        -3.84925         3.68463
LJ           3.46934        -4.81088        -3.43819
LJ           4.40566        -1.68216        -2.18603
LJ            0.7629         1.91683        -1.68003
LJ           5.31631        -1.19808         -2.5048
LJ         -0.110549         4.20475         3.99597
LJ          -3.37442       -0.142396         1.48629
LJ          -5.28391       -0.869553         4.90982
LJ          -6.39663        -1.79981       -0.584124
LJ          0.643518        -4.81529        -5.08403
LJ          -3.17425       -0.822411        -3.90456
LJ           2.78421         1.64199        -3.86986
LJ          -5.69927        -5.39824        -2.60821
LJ         -0.668729        -1.45247         5.07638
LJ           -3.6794        -6.16991        -4.81633
LJ         -0.895681        -3.42839        -5.48656
LJ          -1.01596        -1.78475        -2.61306
LJ           6.20867       -0.694416        -3.02207
LJ           3.14811         2.26556        -2.96444
LJ          -3.43541       -0.338589         4.41216
LJ          -1.78062         3.94308         5.13457
LJ          -3.65039       -0.506128       -0.802291
LJ          -2.66425       -0.910076         2.04778
LJ           5.78913        0.835109          4.2404
LJ           4.03449       -0.322402        -1.38759
LJ         -0.049564         4.03786        -2.61141
LJ          -4.50841         3.27595         4.85684
LJ           5.19577       -0.169494        -2.81545
LJ         -0.307915         4.92886         6.10497
LJ           2.38268         1.90715         3.02439
LJ           -3.0544        -5.80334        -5.78423
LJ           5.09372        -1.04036         -1.3876
LJ          -1.29196       -0.640305         3.91739
LJ         -0.103899        -2.77118        0.599659
LJ         -0.166877         6.38353         5.52493
LJ           3.81074         3.86841       -0.744279
LJ          -3.48715        0.814608         2.30104
LJ           4.01183       0.0373049        0.650792
LJ           4.27777         1.31652         -1.8671
LJ          -3.09444       -0.491899        0.507859
LJ          -5.51888         4.05064        0.348495
LJ           4.20426         2.15461         2.99656
LJ          0.370205        -5.33889        -1.41187
LJ          -6.04687         1.07272        -5.11521
