108
#Comment!
LJ          0.732391        -2.56279          2.0481
LJ           5.66701         4.51484         2.65096
LJ          -2.15493        -4.66105        -4.56066
LJ           6.08562         2.79504        -6.37571
LJ          -1.45368         6.26662        -3.28789
LJ           6.34663        -5.88236         5.79032
LJ           2.06102        -5.71754         1.63207
LJ         -0.817747         5.08165        -4.94167
LJ           5.51294        -5.79747         4.48794
LJ           1.01676        -6.09581         2.08525
LJ           4.04287         1.98255        -2.30069
LJ           -5.3229         2.77424         3.52817
LJ           4.93791        -6.05815        -3.68175
LJ           1.80367        0.347709        0.471136
LJ          -2.47531         5.48107        -4.18998
LJ          0.345426       -0.534911         1.64677
LJ           1.94143       -0.821002         1.68599
LJ           5.98594         -2.6951        -2.64161
LJ           4.43461         3.40231         4.96728
LJ          -6.03795         1.67735          4.9082
LJ           0.60608         5.23345        -4.10056
LJ           6.06582         3.13439         2.54311
LJ           6.16625         4.60332         4.39672
LJ         -0.560189        -2.40917         -5.3745
LJ            -4.927        -2.90856         5.01886
LJ           3.42744        -2.17147        -1.88499
LJ           -2.2141         4.14777        -2.12184
LJ           4.42656         2.12985        -4.64944
LJ           6.12112         3.29031        -5.95129
LJ          -6.29736        0.307665       -0.571018
LJ           4.22405        -2.14825        0.661628
LJ         -0.518052        0.873944        -5.23146
LJ           2.93949          3.0653        -3.67136
LJ          -4.06635        -4.72761        -3.17429
LJ           6.34165         5.64206         1.29801
LJ          0.719886        -4.72844        -0.32704
LJ          -5.46681         2.90737        -5.70832
LJ           1.26504        -5.38635        -5.81406
LJ          -2.80288          -1.321        0.458756
LJ          -5.27359          1.2317        -2.41068
LJ           5.87973         2.38961        -2.00416
LJ           2.10279        -1.72232        -2.99786
LJ           5.29788         3.96272         1.24552
LJ           1.47552        -1.83463          -1.391
LJ          -5.19769         4.75611       -0.564596
LJ           6.05121         2.19683        -3.47255
LJ          -5.18452        -5.62814        -2.46256
LJ          -2.45445         4.26974        -4.66611
LJ          -4.13233     -0.00497807         6.39746
LJ          0.405275        -4.79539         2.59524
LJ           0.61893         -5.8448        0.978707
LJ           2.20487        -4.92916        0.798545
LJ          -2.28738         4.91701        0.832458
LJ         0.0508041       0.0759323        -3.95077
LJ          -3.64386         3.41503        -4.24177
LJ           2.42136        -5.81785        -5.93659
LJ           -5.6136         2.65711         2.79704
LJ           1.58035        -3.05505        0.347237
LJ          -5.07979        0.122021        -2.84913
LJ          -5.56324        -4.86555          4.2087
LJ          -1.44165        -5.73469        0.916848
LJ           3.62785        -3.41007        -2.84902
LJ          -4.97351         3.36881        -3.96801
LJ          0.733737       -0.211823         2.64638
LJ          -5.46182         2.80468         1.96807
LJ          -3.63072        -3.77691         3.03549
LJ          0.590967         4.03499         2.81318
LJ           3.47704         1.86909        0.246964
LJ          0.854942         1.89598        0.749284
LJ          -5.89057         2.37595        -1.44489
LJ           1.59047         2.66472         1.14071
LJ          -2.62155        -5.13976       -0.808659
LJ           1.26219        -1.24672          3.0457
LJ          0.129356        -4.34834        -0.37741
LJ         -0.767521        -1.55112        -1.70648
LJ           3.47875        -3.67526        -4.51976
LJ           3.02327         5.03307        -3.95605
LJ           3.64519         5.05759        0.518277
LJ           1.75115        -1.57015        -1.37951
LJ           1.07635        -4.35868        -4.59543
LJ          -1.98625         6.22408       -0.539514
LJ          0.274478         3.55718        -5.30797
LJ          -1.75478         -1.3744         2.48995
LJ           4.85483         3.09287         -5.5771
LJ          -2.54708         3.56338        -2.32539
LJ             5.079          4.8054        0.623791
LJ          0.917952       -0.411456        -4.66663
LJ          -6.28828       0.0430852         -5.9872
LJ           3.57182         -2.2114         1.34925
LJ          -1.39271         3.43061        0.842189
LJ          0.796178        -6.41905         -4.3567
LJ          -3.57736        -1.76273         3.41216
LJ          -4.09445        -5.73005         4.44924
LJ          -6.04029        -2.26426        -5.14175
LJ           5.64729         5.42357        -2.66774
LJ           4.19483        -4.78965          4.7739
LJ          -2.91277        -2.50409        -0.38038
LJ           3.33626         3.24322        -2.09499
LJ          -2.97063        -4.26829        0.779114
LJ          -2.53193        -1.41271        -4.05566
LJ           3.69687         -1.1691        -4.74306
LJ           2.29733        -4.20578       -0.888815
LJ          -1.29845        -4.82103        -6.06431
LJ          -2.76356        0.509511         3.78275
LJ          -5.68894        -4.79682        -3.24473
LJ           1.80559         4.11513        -3.80159
LJ          -4.41569        -1.31251        -2.21918
LJ          -4.02146        -2.02943        -3.33563
