108
#Comment!
LJ          -6.31324         6.36635         -4.9475
LJ          -6.23395       -0.168139        0.938261
LJ            4.2346        -4.93313        -1.71375
LJ           3.18872         2.46357         6.20554
LJ          -1.67589          2.8261        -2.04683
LJ           6.16565         4.74923        -5.49519
LJ          -1.58678        0.766736         1.23959
LJ          -2.85865         4.31505         -1.5258
LJ           2.80595        -4.79289       -0.697803
LJ         -0.120296        -1.63881         4.25081
LJ           4.38413         6.40234        -6.17813
LJ           3.34083        0.663522         1.78041
LJ            1.1457        -2.64779         1.73286
LJ            6.3019         2.22861        -2.84558
LJ          -2.79061        -1.38129         6.11485
LJ          0.989538         3.77563        -3.76539
LJ          -3.03916         2.89138        -2.39791
LJ          -2.93623        -2.99447         3.14976
LJ          -5.41034        -1.90533        -4.77564
LJ          0.702733        -4.56236         -6.4203
LJ          -4.60969         3.18565        -4.36917
LJ         -0.344271        -4.78066        -6.26816
LJ         -0.439375        0.304595       -0.516608
LJ          -1.42639        -3.94144        -2.83655
LJ          -2.97568         4.96876        -6.04204
LJ          -2.67646         4.93617        -3.32762
LJ           4.11621         3.27094        -3.94044
LJ           4.59978         2.36316         2.59963
LJ         -0.956315        -2.41717        0.436715
LJ          -5.57152         1.40722        -2.53417
LJ           1.94803        -5.43306        -1.61995
LJ           -2.3072         1.82331          4.9842
LJ          -2.17139         -6.1025          4.1284
LJ         -0.486437        -5.13014        0.819176
LJ          -2.11657       -0.219073         3.77472
LJ           2.17522         1.93332         4.38602
LJ           4.12843        0.231662        -3.33414
LJ           3.12893         1.58447         3.25183
LJ           4.54554        -3.70208       -0.357396
LJ         -0.687972         1.35483          0.1447
LJ           3.96569         5.57702         1.69383
LJ          -3.69085        -2.60244        -3.85373
LJ            5.8389          -5.139       -0.313678
LJ          -1.38717        -2.53659         1.84565
LJ           1.96415        -1.63573        -2.14453
LJ           4.75875       -0.850993        -5.02825
LJ          -2.83727        -2.87509         1.71187
LJ          -4.34879        -5.51524         5.84407
LJ           -3.6552         3.73455         3.66331
LJ         -0.556763         2.24084        -6.30817
LJ          -2.14275        -3.47277        -1.48916
LJ            4.2968        -4.98328        -5.58954
LJ          -5.60274        -2.70287       -0.800837
LJ           6.02432         6.34255        -5.75386
LJ           -3.4867         2.64329          5.2559
LJ           6.37084         4.89631         1.36745
LJ          -5.98793        -4.51666       0.0121978
LJ           -5.2829         1.30012         -3.9878
LJ          -1.95809         1.01644        -3.32814
LJ         -0.265307         -1.6819        -2.73951
LJ          -1.05731         1.74227         3.58071
LJ           6.35124        -4.46084        0.143855
LJ          -1.24486        -3.56984        -5.20663
LJ          -6.00328        -2.10217       -0.289907
LJ           3.15222         -5.7175        -2.06024
LJ           1.94817         1.35862        0.531352
LJ           2.57353        -6.12772       -0.210689
LJ             1.337        -3.51975       -0.881977
LJ          0.942765        -5.66222        -5.85271
LJ          -5.35066            5.08        -4.72724
LJ          0.291376          4.3543          2.7238
LJ             4.655         2.35695         1.22537
LJ            5.2675         2.48078        -4.28549
LJ           5.22924        0.560718       -0.469192
LJ          -4.66154        0.558115         4.98225
LJ           2.95159        -2.63459        0.843861
LJ          -4.32324        -2.31876        -1.19086
LJ             5.393        -5.72082        -6.15812
LJ           6.06995        -5.14968        -6.18033
LJ           6.14985        -3.19373       -0.241358
LJ           5.63934        -6.39476        0.333906
LJ         -0.690108        0.738333         1.58474
LJ          -3.25743         3.50792        -2.02471
LJ          0.869643         6.25509        -5.46624
LJ           -2.9032         1.24049        -4.59507
LJ           2.74771        -2.14001          1.4931
LJ          -3.91561        -3.79204        -1.03625
LJ            1.7015        -3.11344        -3.28584
LJ           4.38902       -0.342373          1.0403
LJ          -0.79365         6.18658         4.75111
LJ          -1.55426         3.14307        -2.66988
LJ           2.40023         4.99346         -4.2299
LJ           6.37631         3.66552         1.98276
LJ           3.99931         1.70499        -2.39035
LJ           5.66672         -3.5536        -3.76498
LJ           5.12695        -5.45626        0.666789
LJ           3.94241        -3.60519         3.41495
LJ          0.980609      0.00690481         3.54203
LJ         -0.685584        -6.30594         2.92326
LJ          -2.71517         4.49152        0.139282
LJ           4.71077         4.13203       -0.342881
LJ           4.51148        -1.24409        -2.02096
LJ           3.72234        -4.49811        -2.15233
LJ          -2.62415        -4.32656        -6.02092
LJ           3.20948        0.286891         1.65309
LJ           -1.7693        0.245483        -2.58566
LJ          -5.02007        -6.14448         4.70056
LJ          -3.56458        -2.45181        -5.24006
