108
#Comment!
LJ          -4.70958         1.98159         4.82451
LJ           5.83747        0.828985        -5.18559
LJ          -4.09706       -0.352476         4.17498
LJ         0.0897559        -5.70466         3.42863
LJ             2.133       -0.629683         5.97573
LJ           4.75709         2.14915         4.93506
LJ           5.18111         1.86503        -4.82503
LJ          -4.62966        0.496493        -1.24627
LJ          -2.15891        -2.99199        -5.97034
LJ           -1.4393         4.39745        0.483434
LJ          0.726894         5.93616         2.01193
LJ           3.23249         4.41389         4.67479
LJ          -4.87133        -4.34341         2.05402
LJ           1.24204         4.12104        -2.61933
LJ           1.87097          -0.736        -2.00319
LJ          0.876501          5.7219        -2.96103
LJ          -3.50373           1.308       -0.767663
LJ          -1.15461        -4.74956        -5.31642
LJ          0.261007        -5.05499        -1.37271
LJ          -6.02363        -3.83065        -3.13632
LJ          -5.13506        0.336829        -5.49775
LJ          0.450859        -3.92957        -3.44458
LJ          -6.05802         3.74884       -0.394804
LJ          -6.40825         5.58052         -3.5063
LJ         0.0650077         2.04489         3.61589
LJ           4.11956         2.89906         4.11584
LJ         -0.859561       -0.580007        0.233925
LJ           3.19057          4.4986        -1.83791
LJ          -1.49455          1.4916         5.93914
LJ           2.34281        0.428781        -1.80106
LJ          -4.62509         2.59705        0.463053
LJ          -4.97171        -1.82447         1.33448
LJ          -5.03441       -0.113866        -5.64071
LJ           5.72491        -1.22489         1.39961
LJ          -6.11276        -2.10528         6.27069
LJ           5.12304        -4.83172        0.292839
LJ           3.09425        -1.64438       -0.428248
LJ           4.92662          5.2618         -6.4196
LJ          -4.62253        -1.47849        0.391214
LJ           1.47304        -4.72152        0.101553
LJ          -4.72971         1.37883         -5.1566
LJ           1.68938         3.42402        -0.89383
LJ           0.70682        -3.97139         -1.1336
LJ           1.61784        -1.58242       -0.484158
LJ           5.89663         4.03368         3.96605
LJ          -5.83158          2.2704         4.87664
LJ          -1.32299         5.46934        0.678927
LJ          -2.61506         5.28746         1.30588
LJ           -1.2849        -2.22988         -5.0186
LJ          -2.93188        -2.44796        -5.21547
LJ           5.24989        -5.74857        0.295811
LJ           5.75302        -1.82616         4.03448
LJ           -2.7535       -0.183243        -2.47005
LJ          -5.39926        -3.43036       -0.654378
LJ          -3.68682        -1.52652         6.07732
LJ           5.33671         1.21055        -1.13281
LJ           1.99258        0.844812         3.74498
LJ          -5.92196         4.95444         -3.4214
LJ          0.193674        -4.66922        -5.20718
LJ          -2.28182        -2.62496        -5.27796
LJ          -4.44062        -2.61198        -2.90926
LJ         -0.441595        -3.64378         1.53132
LJ         -0.174195       -0.702847        -5.31532
LJ          0.670366        0.218887         2.17557
LJ          -2.96217         1.30618       -0.266994
LJ          -4.46073        -1.99357        -3.94846
LJ           4.88715       -0.882837       -0.518718
LJ          -4.02192         2.71126         5.22207
LJ         -0.115768        -5.73206        -4.93141
LJ           4.97258       0.0309681         6.17347
LJ           5.31759         2.82634       -0.722427
LJ          0.579626         1.48745       -0.784223
LJ           -4.8298         6.28689         2.27605
LJ           2.35703        -3.34204       -0.955358
LJ          0.728385        0.191751         3.15861
LJ          -1.75072        -3.09645         3.75043
LJ           5.97871         4.89618       -0.438603
LJ          0.100847        -1.84465         2.31606
LJ          -3.23049        0.577911        0.252334
LJ          0.160925         3.85364        -4.33797
LJ           3.30088        -3.46875        0.262439
LJ            -3.608        -5.68289        -2.66146
LJ           5.72049        0.877748        -5.76116
LJ         -0.507553          3.5287         2.23764
LJ           2.02002        -4.59261         -5.6811
LJ           1.93127         4.86143       -0.717719
LJ            3.6435        -1.16936         1.96148
LJ           4.02606        -1.14411        -4.33551
LJ          -4.84286          -4.303         0.63987
LJ           0.79376       -0.334454        0.381095
LJ           5.73895         2.07888         4.22515
LJ          -5.69475         4.27621        -3.61434
LJ          -5.44821       -0.708247        -5.27226
LJ          -2.10117        -3.95444         5.53293
LJ           2.54242         4.51268         0.57783
LJ           3.70542         4.37108        -5.59689
LJ          -3.79478        -2.69698         2.90249
LJ         -0.891638         5.09567        -0.03816
LJ        -0.0346638         2.04988         4.86105
LJ           5.10949         -3.0505         6.13897
LJ          -0.24064         1.66506         4.78226
LJ           5.90497         -4.6183        -4.01016
LJ            4.2504        -5.81491          4.4564
LJ          -3.36813        -4.37748         1.33834
LJ           3.27965         5.37973        -2.90462
LJ          -1.13296        -3.79821         2.10353
LJ          -2.23375         1.90275        -1.19561
LJ           4.08535        -6.25925        -5.96215
