108
#Comment!
LJ          -2.72142        -4.28495         3.47919
LJ          -3.35217        0.404704        -6.43013
LJ           3.58499         6.28235        -6.17487
LJ          -4.70306        -1.21165         4.60487
LJ          -4.35526         4.17438         3.21187
LJ          -1.30305         3.61977        -3.18288
LJ           4.47854         -0.3028         1.87159
LJ           2.77201        -5.93171         2.06214
LJ          -1.24106        -2.17839         5.15564
LJ            1.9419         5.41463       -0.778775
LJ           5.59044         4.72777        -1.16572
LJ          -1.17192          5.6322          6.1018
LJ          0.358799         4.03427        -2.20277
LJ           2.26002           -1.13        -1.99057
LJ          -2.48131         3.15577         5.63701
LJ          0.293852         2.91061         5.45221
LJ          -0.63004        -3.25867          1.4789
LJ          -2.72346         1.04287         1.37627
LJ          -5.43893         5.61276        0.206662
LJ           5.52884         3.11217         -3.2276
LJ          -6.39451          5.3155         3.67159
LJ          -4.05957        0.866012         6.38197
LJ          -2.16848         -1.3673        0.904523
LJ            1.1209         4.70459       -0.489038
LJ            4.8176         4.74133         1.45129
LJ           -4.3608        -5.04553        -1.88893
LJ          -2.60059         5.06389        -2.87416
LJ           5.97256         5.54632        -1.93249
LJ           1.91234        -5.82281         1.25713
LJ          -4.42103         5.56415         4.94629
LJ           4.64992         5.02051        -1.31362
LJ           3.25969        -4.63628        -4.32273
LJ           1.95559         5.31599         6.18443
LJ           1.68139        -4.90056         4.20088
LJ           3.17736        0.241191         6.30486
LJ          0.444573         4.64594        -4.36798
LJ           -1.3504       -0.886467         6.39465
LJ          -5.53241        -2.85384         1.06984
LJ           1.05687         1.32136       -0.498278
LJ          -4.29648         5.45764         1.73879
LJ          -1.11615        -2.08247        -3.43413
LJ           3.36138        -4.23278        -3.69752
LJ        -0.0665388         5.14272         5.17183
LJ          -3.37068        -2.50289         5.05014
LJ           1.07392         3.25065       -0.364426
LJ           4.31415       -0.810118         5.45765
LJ           6.28717        0.881996        -3.57835
LJ          -3.70143        -4.10203         -3.0918
LJ           2.87876          1.9672        -2.23739
LJ           1.55364        -1.01745         2.89423
LJ           3.17755        -3.74698       -0.506653
LJ          0.662561        -4.99194        0.036189
LJ          -5.30028         -4.1424          2.5178
LJ           2.85174        -5.96844        -2.66768
LJ          -4.84775        -3.41154        -5.51022
LJ          -3.33059         1.81423         6.35992
LJ           2.75618        -2.23877         3.74249
LJ            6.3089        -4.78664         -1.1044
LJ           1.75741        -1.18486         6.44397
LJ          -2.22614         2.56154         3.92769
LJ          -4.40562        -4.03527         5.91022
LJ          -6.09089        0.826994        -5.50754
LJ           2.46081         5.83254         5.08985
LJ           5.29454       -0.855291        -1.24397
LJ           4.31097        -2.41208        -3.43463
LJ          -2.52668         5.84009         6.39894
LJ           2.82599       -0.531496       -0.560673
LJ           5.94526        -1.79351         4.38587
LJ          -0.56431        -1.57216           2.202
LJ           5.67542        -1.34462        0.787253
LJ         -0.926549        -2.03057         5.23621
LJ           2.86747         4.57266         2.55422
LJ          -3.10583        0.850635         -4.3943
LJ           5.11971        -4.66719        -1.81249
LJ           -5.8473         3.36761         3.38823
LJ           3.79821         2.17423        -2.74547
LJ          -4.72208        -5.72294         2.98025
LJ          -3.29033        -2.48209        0.648853
LJ           0.20856        -2.81928       -0.549089
LJ           1.18117         4.18232         3.32181
LJ        -0.0728896         5.71881        -6.42019
LJ           6.04562         3.75372        -1.06489
LJ          0.630873        -1.40901         1.55035
LJ           2.63904        -2.05922        -5.50844
LJ           3.55703         4.09612         5.36332
LJ          -5.17435        -1.06587         5.03247
LJ           2.62163         1.06809        -4.16296
LJ           1.85141         6.35526         3.51508
LJ          -2.55416        0.179819        -3.21343
LJ           1.08515         2.95847        -1.75802
LJ          -3.06691         2.59018         1.34706
LJ          0.799691        -3.69755         4.79294
LJ          -1.44991        -1.92327        -6.37151
LJ          -5.93989        -5.26496        -5.87382
LJ          -5.02293         1.48396         -2.5694
LJ          -5.28572        -1.81684        -2.80402
LJ          -1.02713          4.2528         3.02209
LJ          -2.44886         4.97959         6.40953
LJ          -1.47252        -4.82886         2.09285
LJ           4.81964         -4.0428         3.50139
LJ          -1.94855         2.43486        0.862577
LJ         -0.735087         5.62712        -1.48222
LJ          -4.16202        -5.39112         4.20997
LJ           1.43524        -1.24091         5.18681
LJ           3.28227        -5.97604        -6.36228
LJ           0.89692        -1.78879        -3.81166
LJ          -5.65799         5.65254         1.77801
LJ           6.27568         4.02097         4.62624
