108
#Comment!
LJ          0.797108        -0.12055        -3.15181
LJ           4.47232        -1.21159         2.50804
LJ           2.86984       -0.387238         1.06821
LJ           4.86884         3.07027        0.999485
LJ          -3.56251        -5.03421        -6.42237
LJ           3.62864         4.90428        0.480469
LJ          -2.46147        -1.00907         4.10197
LJ           4.57964        -1.91292        -3.99729
LJ          -1.39981         4.19683         1.71624
LJ          -3.51383        0.323042         -6.0821
LJ          -3.64836       -0.580755        -5.13785
LJ          -3.62591         2.54523       -0.140179
LJ          0.830388         5.37921       -0.794126
LJ          -4.45555       -0.685781        0.299511
LJ          -2.35349         1.17247        -5.41658
LJ          -1.35612        -3.06836         2.30096
LJ         0.0580209        -4.40719         6.10234
LJ          -1.00978         3.90891        -4.79918
LJ          -3.10239        -2.78102         6.18277
LJ          -3.76246         3.11138        -5.41992
LJ          -2.14711         1.34654         2.04196
LJ           3.98572          5.6396         1.69124
LJ          -6.35917        0.946214        -5.10675
LJ           1.15708        -4.68921         3.23207
LJ          -2.37688        -3.00109         0.37171
LJ            5.7831        -5.95643        -2.21213
LJ          -5.65891         5.04222        -1.66533
LJ          -5.66469        -1.10341        -4.53657
LJ          0.962894        -6.08674        0.871275
LJ           1.71727      -0.0846541         4.30386
LJ           1.68057         3.98037        -3.81016
LJ            3.7785         6.43402       0.0708288
LJ           5.70894        -1.63493         4.38257
LJ           3.29893        -2.69257        -1.28085
LJ           5.51452         5.24647         1.40643
LJ         -0.873426         -1.1671        -6.18492
LJ          -3.09334         6.16221         4.77395
LJ          -4.40477       -0.371314         1.62745
LJ           -1.5971        -1.03414         5.94082
LJ          -5.92165         4.42737       -0.174611
LJ           4.02419        -2.88456        -2.70788
LJ         -0.477827        -5.13321         4.26813
LJ          0.984178        -3.54732        -1.53351
LJ          -4.08822        0.367894         2.46763
LJ           6.16285         5.09589        -6.31416
LJ           5.24247          1.1213       0.0758488
LJ          -5.23676        -3.16763        -1.24388
LJ          -2.89583        0.190718         5.98117
LJ           1.70118        -1.14752         5.35145
LJ            5.5207       -0.524552        -1.56177
LJ          -1.53936        -3.81208       -0.372155
LJ          -2.08031        -5.12361         -3.6718
LJ          -2.53149         3.76922         -2.2855
LJ           3.26354         4.97991       -0.733201
LJ           2.76819         5.97595        -2.43925
LJ          -4.68612         4.88296         5.51417
LJ            3.1535         3.27489        -4.16004
LJ          -4.31353         5.33619        -1.73955
LJ           1.64837        -3.85521       -0.717315
LJ          -5.49671         5.82552       -0.924062
LJ           -0.7004        0.389069         5.31832
LJ          -3.05185         3.88859         2.99682
LJ          -5.14377         6.04768         5.68512
LJ           3.84158        -6.17288          1.2089
LJ           6.04305        -5.60152         2.67788
LJ           3.25211        -5.59897          -2.348
LJ           3.40593        -1.73771        -1.83052
LJ           1.20974         2.51671        -3.27055
LJ           5.32666        -1.87149        -2.48807
LJ           1.14878         3.83716         3.24269
LJ          -1.94514        0.582056         1.23583
LJ          -4.42231        -1.23581         3.33087
LJ          -6.34913        -2.99635        -1.61337
LJ         -0.999775         -3.8354        -5.96761
LJ           -4.0349        -2.22341        -3.84434
LJ           2.32961       -0.590539        -2.00407
LJ           5.53904         4.59767        -4.97904
LJ          -1.69071        -1.41398         4.64689
LJ          -5.00503        -6.41701        -4.33418
LJ          -2.02559        -4.30957        -4.77009
LJ          0.242551       -0.756713        -3.72494
LJ           4.86711       -0.953032        -3.47441
LJ           3.23935        0.196605        -1.66136
LJ          -2.58165       -0.830822         5.29723
LJ         -0.210166         4.47911         6.01457
LJ          -3.43658       -0.400749       -0.353226
LJ            -1.888         0.24316         2.29251
LJ          -5.93302         2.65774         5.55547
LJ            4.4966       -0.716199        -1.66707
LJ           1.23534         4.90019        -1.93908
LJ          -4.88936         3.79983          4.3709
LJ           5.97284        0.172213        -2.79217
LJ          -2.99072         4.97916        -5.51748
LJ           2.08426         1.71523         1.73902
LJ          -3.64681        -5.79044        -4.57766
LJ           5.06526        -2.11787        -1.48394
LJ          -1.56908        -1.61016         3.64866
LJ         -0.328244        -4.13697         2.67007
LJ         -0.307006         -5.3192        -6.19824
LJ           6.25597         4.85738        -1.32949
LJ           -3.0463         0.77573         1.47391
LJ           3.10041        0.396193        0.055846
LJ           4.07493         1.19113        -3.09222
LJ          -1.86734       0.0130672        0.302913
LJ          -5.83695         3.27776          1.1441
LJ           4.51042         2.91722           2.065
LJ          -1.39262        -4.17255        -1.29512
LJ          -5.80562         1.32749        -6.12962
