108
#Comment!
LJ         0.0106316        -2.20017        0.724782
LJ           -3.9068         5.76277         4.28716
LJ          -2.38842        -1.33007        -6.10746
LJ          -2.03677        -2.23304        -3.95057
LJ           4.54889        -5.44371         1.76349
LJ            0.5254        -5.35161         2.10747
LJ           5.46925         3.31114        -5.28395
LJ           4.41308        -6.30501        -6.31054
LJ           3.37975        -6.00888         1.63331
LJ           0.97783          5.1261         -4.4455
LJ           4.45262         1.20133        -5.04266
LJ            3.5288          5.7919        -2.12171
LJ          -2.11036         6.40594         1.46402
LJ          0.425631       -0.522029        -1.96752
LJ          -5.05866        -4.87514         5.12275
LJ          0.739012        -6.00739        -1.53605
LJ          -4.64874        -3.74439        -2.60427
LJ          -2.82591       -0.217676        -1.26934
LJ          -2.29267          3.2563         6.12622
LJ           5.79677       -0.652577         4.71472
LJ           5.03523         4.82674         2.44984
LJ          -1.39084        -5.37969        -1.87346
LJ          -6.04359         1.13111        0.754688
LJ           -2.5106        0.376218         2.81634
LJ           3.42401          1.3955        -1.72042
LJ          -4.61796        -3.62845         -4.9822
LJ          0.971727        -5.02742         2.79206
LJ           -1.1878        -1.96593        -1.72691
LJ           2.28848        0.769037         0.90037
LJ           2.34337        -4.26624         6.38657
LJ           6.31689        0.329571         4.77825
LJ           5.95253        -4.47045         1.90294
LJ           1.18152       -0.105577        -1.25198
LJ           5.80538         3.56541       -0.768477
LJ          -2.20835         1.81203        -3.40912
LJ          -4.51873         -3.4558         6.21042
LJ           3.27978         3.42041        -5.66648
LJ           2.44176         1.43458         1.09087
LJ          -3.82245        -1.83309        -1.65657
LJ           4.20313         4.05627         1.23406
LJ           1.06216        -4.84153        -5.67798
LJ          -5.43152        -0.28156           5.088
LJ         -0.112216        -1.62196        -1.27872
LJ           3.32057        -4.88554         6.02614
LJ          -5.25623         5.83049         2.53329
LJ           2.92162       -0.492113         4.05343
LJ           -1.3373         2.67523        -5.56521
LJ          -5.84514         3.44087        -3.80025
LJ          -1.52413         1.75603        -4.29651
LJ          0.215636        -5.22647        -1.20768
LJ          -2.74165         5.91515         3.97662
LJ           4.60959        -5.24887        -4.21717
LJ          0.504659         -2.0047         6.16118
LJ           6.28035         5.90366        -3.45394
LJ            3.1744        -4.87372       -0.165204
LJ           6.18385         0.25119         2.00404
LJ          -1.99664        -5.17859         1.27188
LJ           5.49575       0.0275679        -1.59228
LJ           1.54378         1.75633        -1.88113
LJ          -1.08099         1.42287        0.209121
LJ          -6.23399        -4.10226         1.73729
LJ           5.02031         3.55095          5.3313
LJ           5.51199        -5.43893        -1.03679
LJ          -1.28028        -6.12798        -5.73391
LJ         -0.427262         3.39012        -5.89951
LJ            -1.129         5.90596         3.31983
LJ          -4.02738       -0.310369         3.38238
LJ           2.61337         1.37482          3.5924
LJ           5.42132         5.26209       -0.145527
LJ          -3.79156         5.02171       -0.722908
LJ           2.67191          2.9833          4.3659
LJ           5.16285         6.29319        -6.38124
LJ          -2.21714         3.54766         1.75718
LJ            3.6475       -0.684235        -4.60115
LJ           6.20836        -1.59795       -0.148957
LJ          -1.40866         1.26109          4.6747
LJ           -2.7931        -3.40056        -1.84544
LJ           -0.1509        -4.19617         4.96131
LJ         -0.591539          -5.268         1.82674
LJ          0.807317        -1.84599         2.20937
LJ           1.07216          2.5205        -1.21548
LJ           5.82429         5.15699         2.06301
LJ           5.49313        -1.70018       -0.154369
LJ           5.56066        -1.44096       -0.960752
LJ           3.26452         2.28175         6.45924
LJ          -1.08891         2.04951         4.72162
LJ           5.37584         2.29308       -0.816765
LJ          -1.25114         -2.0037        -1.12903
LJ          -3.86155         2.74219        -3.76774
LJ          -5.43815         0.22259        0.866858
LJ           5.25494         1.78249        -1.44072
LJ          -4.39874        -6.10057         2.46742
LJ           4.24529         4.54429        -3.58329
LJ           5.28429         1.01189        -5.31255
LJ           5.65574        -0.64956         3.74043
LJ         0.0517198         6.40224         1.70391
LJ           3.07715          -4.893        -2.46304
LJ           1.09785         2.16243         6.40694
LJ          -5.97559         4.87793        -2.09874
LJ          -3.26058        -4.96689         4.16979
LJ          -4.88554        0.863091        -3.58855
LJ          -3.92304        -2.49644        -6.09598
LJ           4.54347        -3.59381        -2.38435
LJ           4.80711        -3.22899        0.279076
LJ         -0.996667         2.30581         -2.9265
LJ           4.77866          5.5073        -4.00804
LJ          -1.57934        0.283455        -4.61921
LJ          -1.92361        -3.71745       -0.870629
