108
#Comment!
LJ           1.89643         2.86717        -4.53619
LJ          -5.74583        0.747829        -4.53555
LJ          -6.42425       -0.186592        0.239973
LJ           2.70458         5.92335        -6.31022
LJ           2.51609        -0.66742        -2.29473
LJ           6.44974         3.75569         1.44047
LJ         -0.428733        -2.13265        0.836146
LJ           1.15503       -0.222994        -3.78221
LJ          -4.09744        -5.14946         6.03767
LJ         -0.654956        -4.25008        -5.09138
LJ           2.07036         4.20221        -5.46387
LJ          -6.26743        -6.44738        -1.51174
LJ           5.57132        -1.39412      -0.0525268
LJ          0.781265         5.79351        -4.95851
LJ         -0.023951         4.09892        -2.48945
LJ          -4.62085         2.70145         1.62117
LJ            4.1318        -1.36078        -4.47305
LJ           -0.1116        -1.79828         6.01349
LJ          -3.04329       -0.913014        -1.95393
LJ           3.75822       -0.643583         1.05156
LJ         -0.646122        -3.15558        -4.17257
LJ           2.04899        -3.67153          4.9756
LJ           4.40937         2.62246         2.79021
LJ          -3.61536         2.77765         3.71257
LJ          -6.10368        0.409996         4.18518
LJ          -5.41005        -1.38324         5.02513
LJ          -6.05974         -2.0543         5.64262
LJ          -2.91865         3.71883         5.00217
LJ           3.62532         2.12896         4.49663
LJ           3.09381         4.89301        0.733809
LJ          0.402324         5.07686        -4.07524
LJ           2.44224        -3.75193         6.31127
LJ            5.3057         1.77216          6.2086
LJ         -0.910636         5.44739        -4.90515
LJ           4.76439        -2.18094         5.49141
LJ           3.74326       -0.533815       -0.357593
LJ          -2.67368         5.48021          5.1415
LJ          0.451017        -1.10868        0.961453
LJ           -2.0201         1.66919         1.23921
LJ           -5.3429        0.872289        -1.05122
LJ           2.31592        -1.78032       -0.713717
LJ          -5.72882        -2.49998        -6.29151
LJ          -5.56546         3.93535        0.469963
LJ          -1.00997        -2.94397        0.948612
LJ          0.612603        -2.47329        0.167089
LJ          -4.96064         1.93894          3.1046
LJ           3.93415       -0.284517        -2.49823
LJ          -2.55167        -2.63477        -1.71455
LJ           5.19764        -3.45261        -4.87417
LJ           5.62678     -0.00142135       -0.420482
LJ          -5.64661         0.67845         2.69872
LJ           1.68955          1.9764         6.36128
LJ           4.51167        0.186708         4.47115
LJ          -6.37959         1.56939       -0.218383
LJ          -1.37748         3.80004         -2.6397
LJ           -1.0324        -2.86448         5.99665
LJ          -2.47834     0.000756485        -3.87645
LJ          -6.19308         1.39489        -3.90377
LJ          -4.18657        -5.14516         2.08402
LJ           6.35599        -1.02507       -0.772177
LJ          -4.81815        -5.24366         5.15232
LJ          -2.10373         4.88369        -6.29772
LJ           4.49938        -2.81693        -2.85756
LJ          -4.39305         1.02411        0.644986
LJ          -3.72096         3.48784        0.391514
LJ           1.67844        -6.39247         4.23566
LJ          -3.64163        -1.46893        -1.15519
LJ           2.29141          1.7142         1.90702
LJ           3.03018        -2.62587       -0.975911
LJ           2.78185         3.70082         2.37537
LJ          -1.79444         1.03977         2.66439
LJ           1.36505        -1.69717        0.184138
LJ          -1.75272        -2.74081       0.0605847
LJ          -1.50278        -1.84813         1.26106
LJ          -5.04771         3.98192         4.46532
LJ          -5.90268         5.27041        0.850547
LJ          -2.89181         6.39992        -5.04644
LJ          -1.90832        -2.47464          2.1376
LJ           1.64453         6.39697        -5.79447
LJ          -0.52039         -3.4459         1.78498
LJ          0.322278         1.34274         4.33648
LJ           3.75493         -2.2884        -2.07601
LJ           1.72045         -2.0198        -1.57453
LJ          -0.86418         -2.4119         1.80953
LJ          -6.35932        -4.73915        -2.76853
LJ          -5.94171        0.561991         1.25813
LJ          0.909873        0.807839         1.88918
LJ         -0.798479       -0.597313         -2.2538
LJ           4.79508       -0.702146       -0.814713
LJ        0.00704668        -4.09563         5.17379
LJ           2.45198         -4.0197         3.80371
LJ           6.36635        0.570708        -1.23673
LJ           1.90308         1.92575        -2.04469
LJ           3.15614         4.02021        0.176262
LJ           6.18621         3.83822       -0.792883
LJ            3.8963        -1.60352       -0.355481
LJ          -5.38664        0.867901        0.122535
LJ          -4.50354         3.44846       -0.959978
LJ         -0.634294        -2.44875        -1.81674
LJ          -4.42186          3.4183        -2.27783
LJ         -0.985743        0.517669         1.92386
LJ           2.08653        -2.73787        -0.29367
LJ           1.48828       -0.722795         4.92595
LJ         -0.433088         1.14775         1.13964
LJ           4.20378        0.500357         1.91552
LJ           3.90722         1.53742         1.58111
LJ           4.84521        0.325686        -2.71679
LJ           4.31003         1.47261         2.73332
