108
#Comment!
LJ          -5.24666       -0.782777       -0.545329
LJ           6.35978        -2.36463         1.56572
LJ           2.97924        -3.41879         2.59517
LJ           5.40108        -3.81605         6.25356
LJ           1.30111        -4.14005         4.45318
LJ           -2.1068        -3.98553         5.54479
LJ          -3.37601       -0.400412         1.78963
LJ           2.20616         -4.6371        -3.26298
LJ           2.91486         3.19239        -6.45503
LJ           3.17776         -5.6196         1.31622
LJ          -3.36788        -4.90249         1.30771
LJ           3.31964         3.77322       -0.471484
LJ         -0.858906        -3.94577         2.82373
LJ          -2.57047         3.88388         4.20098
LJ          -4.63446       -0.395705        -1.99166
LJ           -1.3563         5.48818         -5.6556
LJ            1.7292         2.58736         5.23635
LJ           3.55929       -0.502856        -5.03429
LJ          -4.26312        -4.77032        -4.36022
LJ          -1.01756         6.43479        -3.14054
LJ            2.1304        0.655121           4.777
LJ          -5.23734         1.49434        -2.69262
LJ          0.282496      -0.0142233       -0.499673
LJ           3.47924         -2.4048        -3.08024
LJ          -4.04782         4.42617        -6.22084
LJ           5.77397      -0.0513704        -1.52166
LJ          -0.34282         1.97734        -3.48967
LJ         -0.523163        -4.61417        -1.83798
LJ           5.31258        0.141754          2.2102
LJ           4.69207          1.5283         5.19978
LJ           5.01332         3.73736        -1.69216
LJ         -0.482178       -0.447295         3.42542
LJ          -2.11526        0.443051        -4.23647
LJ          -1.99261         5.26311         1.14952
LJ            5.4471        -3.84366         -4.6998
LJ         -0.658232        -6.30312         3.13764
LJ          -3.85502        -6.36652         4.02815
LJ           3.82382        -4.79328        0.314777
LJ         -0.764356        -1.00967       -0.853935
LJ          -3.96629        -5.74614         1.12929
LJ           -3.4172        -3.53681        -1.49994
LJ           4.65804        -2.11847        -5.80999
LJ          -6.07018        -5.90159        -1.37548
LJ           4.40412         4.37066         3.63998
LJ           3.97517        -1.45965        0.908309
LJ          -0.91746        -4.80832        -2.04282
LJ          -4.91373        -3.24814         4.28516
LJ          -0.82402         -3.0543        0.848841
LJ          -3.01519         3.38913        -4.19859
LJ           -4.4487         -1.9348          5.4588
LJ           5.70474         1.03463        -4.60184
LJ          -3.00427        -1.52473        -3.11928
LJ         -0.653446        0.331744        -3.45558
LJ          -2.32246        -3.06612        0.570582
LJ           3.72485         1.51254        -1.99168
LJ          -3.72402         5.71985        -5.12273
LJ            5.0794         3.82919         2.18222
LJ          -4.01949        0.828567         4.13413
LJ         -0.761563         6.25501         4.90412
LJ          -1.93246        -4.40522        -3.05508
LJ          -3.37471         5.03265         4.84689
LJ            5.2129          3.5568         6.14537
LJ         -0.518802        -2.90164       -0.260847
LJ          -5.47878        -5.09532        -5.94222
LJ          -3.87501         -2.1144        -2.36054
LJ           3.38667          5.1074        -3.29522
LJ          -2.52957        -6.40752        -6.04737
LJ           6.26599        -2.61771         3.53162
LJ            4.1936       -0.880941         3.47473
LJ          -1.02624        0.965742         1.10656
LJ           4.92601       -0.742753         3.21758
LJ          0.704271         5.70144         2.70089
LJ          -1.08094        -6.25742         3.14072
LJ           4.17926         4.90799        -3.96584
LJ          -2.85314         4.35551        -1.42437
LJ          -5.81928        -6.02781        -6.17805
LJ          -6.33116        -5.68242         6.10413
LJ         -0.980875       -0.330353        -4.80652
LJ          -1.13197         5.78509        -1.69977
LJ           6.40273        -1.57763         2.98081
LJ           3.93958         2.03931         5.97239
LJ           5.81833          2.7211         6.04243
LJ          -2.72449         5.79122       -0.176595
LJ           3.00195         2.49243        -1.81682
LJ         -0.394548        -1.39385         5.09293
LJ         -0.790479         2.88542         4.83557
LJ          -6.39185        -1.21392         4.03353
LJ          -3.75141        -5.80654        0.429774
LJ             2.077         -4.9091        -5.12878
LJ          -5.55484        -1.56435         4.27913
LJ          -3.73387         -1.4744        0.673536
LJ          -2.76848          3.7714        -2.98467
LJ           4.00117        -6.21912        -3.02101
LJ            -6.273        -4.49146         3.78973
LJ         -0.407116         2.21532        0.724752
LJ          0.674825        -1.19694        -1.10247
LJ           3.19033         3.73919        -1.33668
LJ          -3.06791         4.74185         3.40077
LJ           3.30863        -2.75866        0.870919
LJ           5.70235          0.1252         2.67875
LJ           5.35901         1.40974         5.02327
LJ          -3.78209        -1.94703         -2.6634
LJ           4.11432        -5.81733         3.85084
LJ          -4.51944       -0.832848        -4.51519
LJ         -0.328637        -2.56555       -0.823666
LJ           5.50424        -3.55836        -5.34494
LJ           5.84636        -3.11119        -1.31908
LJ          -1.63082         -2.5843        -1.40715
