108
#Comment!
LJ          0.827852      -0.0363203        -3.05112
LJ           4.42729        -1.20517         2.70419
LJ           2.99452       -0.286353        0.991489
LJ           4.85056         2.95133        0.870643
LJ          -3.65807        -5.12837        -6.25051
LJ            3.6528         4.69686         0.47229
LJ          -2.53323       -0.914286         4.07013
LJ           4.52628        -1.95403        -4.09301
LJ          -1.59679         3.94104          1.7804
LJ           -3.5635        0.257591        -6.12479
LJ          -3.44737       -0.490155         -5.1026
LJ          -3.58986         2.70039      -0.0144708
LJ          0.855502         5.55808       -0.743037
LJ          -4.41899       -0.944299        0.136468
LJ          -2.27246         1.27915        -5.38087
LJ          -1.35598        -2.92628         2.43133
LJ        -0.0602672        -4.23824         6.09921
LJ         -0.973159         4.12373        -4.85843
LJ          -2.98576        -2.81541         6.30948
LJ          -3.80674         3.39688        -5.53866
LJ          -2.21867         1.35388          1.9222
LJ           3.89477         5.63649         1.60045
LJ          -6.42333          0.9839        -5.27615
LJ           1.13261        -4.61485         3.18641
LJ          -2.47786        -2.82815        0.346958
LJ           5.82544        -6.10361        -2.05711
LJ          -5.59231          5.2342        -1.54734
LJ          -5.58421        -1.04799        -4.63114
LJ          0.925814        -6.26989        0.929156
LJ           1.65591        -0.11494         4.20037
LJ            1.6619         3.96913        -3.86947
LJ           3.73245         6.44235        0.132342
LJ           5.66439        -1.47753         4.41848
LJ             3.309         -2.7595        -1.41389
LJ           5.53498         5.24498         1.48154
LJ         -0.792074        -1.21211        -5.89484
LJ          -3.32084         6.21162         4.87633
LJ          -4.40672        -0.35455         1.61132
LJ          -1.58039       -0.967803         5.86572
LJ          -5.90125         4.43004       -0.250079
LJ           4.30397        -2.92288        -2.66964
LJ         -0.236586        -5.03208         4.18257
LJ          0.849513         -3.3808        -1.52381
LJ          -3.88313        0.324365         2.46938
LJ           5.93695         4.87077        -6.46228
LJ           5.30091        0.949746       -0.136044
LJ          -5.16613        -3.20139        -1.42255
LJ           -2.9582      0.00363056         5.95565
LJ           1.88835        -1.19314         5.33078
LJ           5.45541       -0.273663        -1.47412
LJ          -1.57193        -3.79865       -0.297083
LJ          -2.15373        -5.32613        -3.60149
LJ          -2.67381          4.0241        -2.33126
LJ           3.29691         4.92484       -0.625074
LJ           2.66305         5.92639        -2.34673
LJ           -4.4535         4.94411         5.54669
LJ           3.32073         3.25295        -4.07668
LJ          -4.43828         5.27265        -1.79238
LJ           1.90638        -4.03292        -0.56202
LJ          -5.21128         6.01313       -0.880798
LJ         -0.870023        0.395449          5.4691
LJ           -2.9795         3.87474         2.82884
LJ          -5.08739         6.10127          5.6922
LJ            3.9479        -6.19735         1.10429
LJ           6.01653        -5.80722         2.56075
LJ           3.21813        -5.74417        -2.22592
LJ           3.32458        -1.53947        -1.62105
LJ            1.2669         2.59776        -3.45412
LJ           5.39941        -1.90233        -2.49125
LJ           1.28727         3.79659         3.15931
LJ          -1.76951        0.672318         1.26266
LJ          -4.31679        -1.26749         3.14924
LJ           -6.4023         -3.1028        -1.75347
LJ          -1.17881        -3.75818        -6.08365
LJ            -4.136        -2.37063        -3.84743
LJ           2.32627       -0.794282         -1.7677
LJ           5.35955         4.28114        -5.26126
LJ          -1.77701        -1.45789         4.63069
LJ          -5.11513        -6.43337        -4.28925
LJ          -2.10643        -4.27154        -4.93395
LJ          0.299547        -0.73785        -3.93292
LJ           4.73535        -0.97543        -3.40408
LJ           3.24242      -0.0997425        -1.55965
LJ          -2.48053       -0.863264          5.2773
LJ        -0.0387088         4.54734         6.12265
LJ          -3.44394       -0.381778       -0.267787
LJ          -1.83401        0.448595         2.28263
LJ          -5.79451         2.85909         5.70586
LJ           4.46242       -0.789629        -1.64983
LJ           1.37897         5.00618        -1.82891
LJ          -4.96408         3.86081         4.35202
LJ           6.01385        0.136088        -2.77725
LJ          -3.28673           4.977        -5.38392
LJ            2.0544         1.69241         1.59486
LJ          -3.74365        -5.80099         -4.4419
LJ            5.0204        -2.20249        -1.53233
LJ          -1.66418        -1.69974         3.51632
LJ         -0.419063        -4.28624         2.89461
LJ         -0.369253        -5.24446        -6.01599
LJ            6.3715         4.90103        -1.33767
LJ          -2.92439         0.75579         1.50617
LJ           2.98769        0.402228       0.0188447
LJ           4.02342         1.15369           -3.21
LJ          -1.74883       0.0688259        0.309673
LJ          -5.87751         3.21287         1.20861
LJ           4.49823         3.04114         2.07643
LJ          -1.58297        -4.06978        -1.39665
LJ          -5.80122         1.33884        -6.19418
