108
#Comment!
LJ          -6.10541         -4.4037        -4.00769
LJ            3.3893       -0.682841         -2.6781
LJ           5.28503         -3.8736        -6.14416
LJ          -6.38202       -0.733246         6.29942
LJ           -3.8173         4.94767        -6.12071
LJ          -3.99847        -1.42172       -0.197492
LJ          -6.44906        0.786706         4.68473
LJ           3.60967        -1.01077         4.47743
LJ          -2.39983        -3.56089         6.07302
LJ           3.69162         3.30095        0.951068
LJ          -4.76416         2.76286         5.59451
LJ        -0.0294773         1.47454          -4.969
LJ           -3.3019       -0.587112         4.59285
LJ             4.614        -1.17083        0.177586
LJ          -2.06573        -4.24262        -5.89482
LJ          -5.14046         6.23119        -4.04279
LJ          -1.58308        -4.52375         1.25387
LJ           5.93424         1.15199        -1.28453
LJ          -3.72194         4.41663        -1.13948
LJ          -3.14788        -5.09596        -5.57048
LJ           5.27017           2.604         -2.0601
LJ           4.06269          1.2189        -2.50235
LJ        -0.0135377         6.13868         3.51645
LJ         -0.596566       -0.125064        -4.53711
LJ          -2.88686          -5.157          1.3615
LJ           5.57597        -6.04295        -1.15415
LJ           3.41255         1.61178         6.32594
LJ            5.6955         5.09686        -3.00502
LJ          0.620774         2.88176        -1.44982
LJ           6.19101        -5.68281         4.26571
LJ           2.92056        -4.87998         3.18153
LJ           3.18291         5.38155        -1.32867
LJ          -2.90032       -0.854873         1.93323
LJ           3.07028        -3.96185        -3.73673
LJ          -4.16978        -3.91175         -2.2076
LJ           4.92846         1.63457         2.13965
LJ          -3.14432         1.75513        -6.11875
LJ          -3.47614        -1.44277          4.0948
LJ           1.56389       -0.339052         1.78442
LJ            1.1815         5.98468         3.20752
LJ           1.18868         6.44537         2.97115
LJ          -6.42949         -2.4644        -5.65238
LJ           4.37303         5.60846        -3.38587
LJ          -1.04162         5.73535         2.22053
LJ          -5.04733        0.681189        -1.93896
LJ          0.272876         6.27429        -4.34824
LJ          -5.49921         2.06885        -3.13304
LJ         -0.807142        0.322753         6.24342
LJ           4.10907        -4.24766        -5.93177
LJ          -3.23795         3.83356        0.551076
LJ          -3.50388         -5.4607         1.49849
LJ           1.49059        -5.45907         4.37059
LJ           6.36281        -6.17249         4.89652
LJ           4.74163         5.78708          4.0675
LJ          -4.20255         -2.9869         3.86999
LJ           3.68588        -3.54584          2.2948
LJ        -0.0552506       -0.100972         2.65192
LJ           4.11244         4.37747          2.3454
LJ           2.72925        -5.25183        -3.72966
LJ          -5.24261         1.86353        -5.92871
LJ         -0.753647         2.40231         6.17417
LJ          0.974811        -3.74533        -1.57599
LJ           0.46211        -3.46637         2.16583
LJ          -4.53066         1.81561        0.433939
LJ          -5.19281         2.49424          2.8558
LJ           0.23305        -3.48823         5.63274
LJ           0.10997         5.08745        0.423544
LJ          -2.19771         2.26563         -6.2411
LJ         -0.549123        -2.88852        -3.66497
LJ          -6.14824        -4.85296         2.78317
LJ          -1.59818        -5.56376        -3.76465
LJ          -4.99501         1.65632         2.35959
LJ          -3.93161         1.74805         2.75184
LJ          0.917187       0.0155967        -2.97559
LJ          -4.89107         5.43407        -5.99576
LJ           2.16266        -3.54208        -1.83958
LJ          -2.87515       -0.339803         5.08531
LJ          -3.87411         -2.7459         2.52028
LJ           -3.0819        -4.37021        0.071637
LJ          -2.03957         1.07834         2.81553
LJ           3.56145        -2.38287        -1.48887
LJ          -6.19655        -4.30781       0.0763019
LJ          0.586106        -2.16325         5.54148
LJ           5.64259        -1.63115        0.427783
LJ         -0.141852         2.57294        -6.33892
LJ           6.23915        -5.45151         4.19015
LJ           2.17527         4.10787        -2.06104
LJ          -1.28915        -2.89494        -1.24765
LJ           5.81963        0.307979       -0.698383
LJ           2.79976         -3.1605         2.42273
LJ          -4.15994         2.69218         4.98594
LJ           5.17416       -0.573462        -1.05785
LJ          -1.18497         4.26333       -0.746094
LJ          -5.95947         2.99683        -2.10267
LJ          -2.40322        0.406829         4.76097
LJ          -1.44389        -4.94991         1.63781
LJ          0.664769        0.090648         2.19421
LJ          0.621625       -0.267682        -5.27099
LJ           3.37577         0.82101         2.27786
LJ           6.10352         5.02856        0.294629
LJ            4.2832         3.65808        -4.39183
LJ          -2.46821         2.88758       -0.797286
LJ           4.19203         -4.2239         2.21327
LJ           4.20398        -3.56932         5.75137
LJ          0.673266         3.08025        0.741194
LJ            4.5511        -2.50433        -4.72096
LJ         -0.888121        -2.17559         5.60155
LJ           1.41629         5.31363       -0.938113
