108
#Comment!
LJ           1.36918     -0.00106886        -3.21304
LJ           4.79205        -1.24525         1.02425
LJ           2.07567       -0.909831         1.36905
LJ           5.04441         3.91832         1.84568
LJ          -2.82902        -4.32903         5.24523
LJ           3.23369         5.94606        0.749111
LJ          -2.16439        -1.27124         4.66256
LJ           4.89196        -1.89007        -3.46958
LJ          0.070699         6.11167         1.24579
LJ          -4.15918        0.120699        -5.74921
LJ          -4.99329       -0.886278        -5.62933
LJ          -3.89241         1.35397        -1.05775
LJ          0.758751         3.92955         -1.4543
LJ          -4.88581         1.28069         0.92351
LJ          -2.20773        0.750932        -5.68048
LJ         -0.943501        -4.21797         1.24152
LJ           1.03156        -4.98996         5.94628
LJ          -1.29636           2.304        -4.36505
LJ          -3.91897        -2.47023         5.22493
LJ          -3.37528        0.875071        -4.60029
LJ            -1.965        0.640978         2.56638
LJ           4.53158         6.02409           1.627
LJ          -5.67525        0.762025        -4.19982
LJ           1.24981        -5.22297         3.55278
LJ          -2.03683        -4.01113         1.21572
LJ           5.46481        -4.88548        -3.37122
LJ          -5.26623          3.9634        -2.51832
LJ          -6.31071        -1.47708        -3.78742
LJ           1.24285        -4.69862        0.427152
LJ           1.92149       -0.188467         5.35009
LJ           1.99711         3.84909        -3.40761
LJ           4.33725        -6.03831       -0.489782
LJ           6.04595        -2.81755         4.09908
LJ           3.41102        -2.05355       -0.686042
LJ           4.97792          5.3018        0.924076
LJ         -0.108318       -0.835682         5.95864
LJ          -1.38087         5.86057         4.05088
LJ          -4.19444       -0.135789         2.01197
LJ          -2.85027        -1.34247         6.23705
LJ          -6.31259         4.61804       -0.088469
LJ           1.97823        -3.75001        -3.85725
LJ          -2.27037        -5.93962         4.91147
LJ          0.627574        -4.39897        -3.74974
LJ          -5.25549        0.502794         1.97153
LJ          -4.99943        -6.16781        -5.14193
LJ           5.02019         2.33405         1.09677
LJ          -5.56469        -2.93673        0.163545
LJ          -2.27944         1.04296          6.1921
LJ           0.40128       -0.395146         5.16646
LJ           6.15923        -2.26901        -2.62131
LJ           -0.7967        -3.95592        -0.56904
LJ          -1.69809        -4.61916        -2.59404
LJ          -1.47064         1.85895        -1.94121
LJ           3.19552         5.58132        -1.04259
LJ           3.62616        -6.23794        -3.07089
LJ          -6.43156          4.5038         5.19013
LJ           1.64846         3.57642        -4.62937
LJ          -3.75767         5.74562        -1.29498
LJ           1.08137        -2.92656        0.275791
LJ           6.08534         4.24282        -1.04748
LJ          0.549741        0.123047         4.27877
LJ          -3.56604         4.04222         4.25754
LJ          -5.57254         5.40184          5.6765
LJ           3.40203         6.23135         1.95338
LJ           6.23472        -4.05886         3.55382
LJ           3.43101        -4.87375        -3.26142
LJ           4.36101        -1.70157        -2.08999
LJ          0.833476         2.00856        -1.94095
LJ           5.22581        -1.22807        -2.65834
LJ          0.103802          4.1416         3.86758
LJ          -3.07707      -0.0408066         1.41573
LJ          -5.15455       -0.932517         4.64602
LJ          -6.37753         -1.9931        -0.74833
LJ          0.382649        -4.64286        -5.19951
LJ          -3.31213        -1.06586        -3.88368
LJ           2.72837         1.29111        -3.53058
LJ          -5.97633        -5.89686        -2.99653
LJ          -0.77675        -1.40741         5.04278
LJ          -3.90686        -6.16431        -4.79901
LJ          -1.11876        -3.59961        -5.30099
LJ         -0.812178        -1.61715        -2.79551
LJ           6.06188       -0.919313        -3.24034
LJ           3.11103         1.92327        -2.78315
LJ           -3.3406       -0.374849          4.6022
LJ            -1.521         4.00751         5.25777
LJ          -3.56101       -0.496597       -0.695326
LJ          -2.52292       -0.779066          2.0958
LJ           5.98789         1.13891         4.45862
LJ           4.21638       -0.472931        -1.54011
LJ          0.126386         4.20029        -2.54155
LJ          -4.40838         3.44574         4.68242
LJ           5.35874     -0.00538997        -2.83052
LJ         -0.755107         4.95044         6.35521
LJ           2.32751         1.87548         2.81109
LJ          -3.19813         -5.8259        -5.52062
LJ            4.9495        -1.27392        -1.40773
LJ          -1.22586       -0.825156         3.97256
LJ        -0.0892339        -2.95768         0.96395
LJ         -0.192778        -6.34704         5.71726
LJ           4.27084         4.06234       -0.845764
LJ          -3.62451        0.702766         2.02441
LJ           3.85984        0.118119          0.5418
LJ           4.29304          1.3113        -2.06246
LJ          -2.93182       -0.433445        0.369544
LJ          -5.58658         3.93949        0.472802
LJ           4.34649         2.19245         2.62089
LJ          0.093053        -5.17393        -1.41489
LJ          -6.01705         1.12541        -5.30021
