108
#Comment!
LJ          0.833936         3.42577         3.92992
LJ          -2.17777        -2.77694         1.51225
LJ          -6.44637         6.33285        -3.76581
LJ          -3.74034        0.415062       -0.405834
LJ           5.84937       -0.994793          3.6652
LJ           5.07374        -6.14996         6.08637
LJ           4.61531         3.09343        -4.41449
LJ          0.643769         2.42016         1.78238
LJ           1.66764        -6.21808        -2.47758
LJ          0.171796         1.00271         -1.5239
LJ           1.46625         1.30007       -0.816127
LJ          -5.44962        -6.30365         3.26908
LJ          -1.57981         5.51142         1.35186
LJ          -1.48611         1.88541         -5.3741
LJ           1.73795        0.753316        -3.64735
LJ          -5.46176        -5.97236        -6.12174
LJ           4.67411        0.387941         5.76018
LJ           3.94217         4.60849        -1.00106
LJ          -4.45205        -3.62901        -5.27012
LJ         -0.177061         2.98819         4.57245
LJ           5.26449         5.52503       -0.238083
LJ          -2.57623         -2.4862        0.534835
LJ           1.63102         1.82784        -5.50104
LJ         -0.079524        0.694983        -5.88457
LJ           5.68514       -0.312975          1.8331
LJ           6.21037        0.372907         3.53277
LJ         -0.633708        -6.22624        -5.84249
LJ         -0.122383         6.35119        -1.84042
LJ            5.3659        0.382898         3.25263
LJ           4.55263         4.81341         5.42251
LJ           -2.3445         5.82992       -0.136816
LJ           3.76681         3.14789         3.18881
LJ           2.51816        -3.51148        -2.46181
LJ           -0.2898         5.75781         3.68469
LJ          -3.50066        -4.73501        -4.85045
LJ           4.57203         5.58277        -4.24582
LJ          0.621241       -0.393022        -4.09205
LJ          -3.98687         6.43929       -0.686563
LJ          0.578044        -2.67719         -1.0892
LJ           5.61984           4.009         2.34219
LJ          -2.74593         2.68352         4.79162
LJ           5.86815        -6.12418         4.63399
LJ          0.264456        -3.95183        -2.10429
LJ          -3.40183         -3.4903         6.28389
LJ          -6.04385         1.69598         4.82268
LJ           2.48809        -4.19439        -4.22197
LJ           2.97959        -3.73752        -5.57362
LJ           5.62041        -4.85799         1.92071
LJ           2.01937         5.79877           4.457
LJ           0.18447          4.5143        -1.77185
LJ          -4.43454        -0.90125        -6.05998
LJ          -2.46302        -5.83575        -0.75926
LJ           1.54826        -1.22964         5.73535
LJ          -1.47395        -3.61139        -1.12313
LJ           3.70942        0.858207        -1.74278
LJ          -1.55456        -3.02961         2.98359
LJ          -2.97644         4.11601        0.244395
LJ         -0.417727         1.85517        0.356005
LJ           4.58036         6.03121        -4.48555
LJ           6.34089        -2.56638         4.40127
LJ          0.247615       -0.198001       -0.381354
LJ          -4.07782         1.57579        -5.39823
LJ          0.851332      -0.0301329        -2.90877
LJ           5.46507        -2.17757       -0.687594
LJ          -1.76971        0.988298         3.49733
LJ           4.44738         4.91279        -3.01651
LJ          -4.52426        0.767693         2.73866
LJ           2.07483        -5.58076        -5.33295
LJ          0.693714         3.87942       -0.433669
LJ           3.39244          2.3156         1.85902
LJ          -5.88596         4.17754       -0.150969
LJ          -4.44971         2.80091        -5.46527
LJ          -1.62778        -2.60594          2.3185
LJ          -4.39099         -3.3222         -2.2037
LJ           2.90268        -4.17577        -5.13592
LJ           5.49172        -1.25118        -5.54047
LJ           3.03294         2.57935      -0.0224923
LJ          -4.11869        -5.89809         2.94455
LJ         -0.505638        -0.59157         3.59257
LJ          -2.45585          2.1243        -5.38348
LJ           1.00404         2.67501         1.82279
LJ           -5.5683        -1.26165         1.23927
LJ           4.88966       -0.295567        -6.15124
LJ          -3.27895        -2.22488         2.74909
LJ           3.66866        -1.09128        -2.69035
LJ           1.99958         4.56639         5.28774
LJ          -4.90766          -5.696         5.83562
LJ          -3.91342         5.12918         3.12974
LJ           5.94709         4.60505        -4.12818
LJ           4.76255         3.80438        -1.71848
LJ        -0.0441272        0.719412          2.9017
LJ           3.67356         5.71705        -0.83658
LJ           3.78093         5.13253          6.2891
LJ          -3.42185         5.31745        -4.17275
LJ           6.24019         1.62319        -5.14537
LJ           6.10528        -4.01691         -4.8017
LJ          -6.07474        -4.21424        -1.82255
LJ          -2.76908        -2.58362         1.72752
LJ          0.939211        -1.83303        -1.90587
LJ           -2.6673       -0.472015        -3.01482
LJ          -1.51724        -4.65121         3.68796
LJ           2.92396        -1.16295        -5.98898
LJ          0.670631        -4.77588         3.36739
LJ           1.06476         5.16463         -3.2648
LJ            4.8986          4.1733         3.86054
LJ           2.25904       -0.343122       -0.583847
LJ           1.06313         4.54189        -4.22256
LJ           -5.1295         2.41572     -0.00572205
