108
#Comment!
LJ           1.17547        0.961187        -1.83018
LJ           5.27039       -0.729643         5.35555
LJ           4.77616        0.680943        0.183842
LJ           4.26361         3.31297       -0.360289
LJ          -5.25425         5.52339        -3.99318
LJ           4.59847         2.40173         1.34924
LJ          -2.64812       -0.289191         3.07145
LJ            3.8877         -1.4231        -3.59427
LJ          -3.59687         3.94018         2.90583
LJ          -3.67134         -2.4003        -5.06446
LJ         -0.890839         1.57077        -5.52329
LJ          -3.70303         4.55796        0.162185
LJ            2.1073         -4.9941       -0.375908
LJ          -2.24886        -4.14374        -2.28306
LJ          -1.08489         3.06874        -4.76397
LJ          -1.05109        -1.62341         4.32494
LJ          -2.39039        -1.80977        -5.44981
LJ          -0.26969        -5.17291        -6.03716
LJ          -2.19394        -2.19879        -4.50381
LJ          -4.15727        -4.27956         4.60187
LJ          -2.14843         -1.0528        -1.89626
LJ           3.74932         6.21283         2.07329
LJ           5.83816          1.5808          4.7568
LJ          0.400842        -4.33482          1.7635
LJ          -4.72907        0.171911        0.295367
LJ          -5.79934        -5.75465        0.959094
LJ           -6.2443        -4.38244        0.869228
LJ          -4.20924        0.258608         6.44271
LJ          0.457713         3.55252         1.57203
LJ           0.67547       -0.863049         2.68189
LJ           1.44648         4.76228        -4.51005
LJ           3.06904        -6.28773         1.22986
LJ           4.72107         1.83223         4.74028
LJ           2.19354        -3.89914        -3.14336
LJ            5.6306         3.20421         2.30554
LJ           1.19303        -1.21811         -1.2811
LJ           -3.1746        -6.11787         5.48851
LJ          -2.15915       -0.712724         1.85737
LJ          -1.65467      -0.0353328         4.24133
LJ          -5.93413         4.48067        -1.70937
LJ           5.36327        -2.00616        -2.39541
LJ           2.81088        -4.02941         4.78306
LJ          -1.28941       -0.561881        -1.24938
LJ          -2.58966        -1.55247         2.55192
LJ           2.19132        0.987012         3.90466
LJ          -6.37355        0.981129          1.7391
LJ          -5.48928        -3.13949        -2.74573
LJ          -3.81421        -2.02079         -6.2206
LJ           3.51293         -2.5291         5.79827
LJ           4.44668        0.233082        -6.34402
LJ          -2.69528        -2.84714         1.24809
LJ          -2.16755         4.72375        -3.62743
LJ           -4.9547        -5.24818        -1.11418
LJ           3.94931         4.18303        0.207461
LJ           1.06052         5.24376        -2.17452
LJ          -2.57186        -5.41788         6.12816
LJ           6.02064         2.84752        -2.65033
LJ          -4.56459         3.64642        -3.15295
LJ           5.40555        -6.45232         1.88856
LJ         -0.649588        -4.05644       -0.393686
LJ          -3.58601       -0.881991         6.01511
LJ          -2.31674         4.80716         3.24156
LJ           6.44044         4.74784        -4.44035
LJ           5.67673         4.44079        0.940837
LJ          -6.35403         5.77655        0.459609
LJ           3.49387         5.99156        -2.95904
LJ           5.38277        -6.22791        0.879878
LJ            2.0789         2.65418         6.39698
LJ           4.55463        -1.50587        -2.85213
LJ           3.83177         3.09311         1.77889
LJ          -1.13933        0.919123         1.40212
LJ          -1.21655        -1.08666          0.9311
LJ          -4.10625         -4.0703        -2.59052
LJ          -3.25162          -3.819         3.92484
LJ          -5.58307        -5.18795        -5.92939
LJ           2.03948        -1.60884        0.648121
LJ           2.47857        -1.19381         2.93786
LJ           -1.7149        -1.95812         3.20056
LJ           6.12511         6.05999        -4.55165
LJ          -3.29789        -3.53633          5.1474
LJ          0.540631       -0.780841         5.92583
LJ           3.94577        -1.98833        -1.97261
LJ           3.31461        0.368259       -0.945565
LJ          -1.89223       -0.955233         3.70865
LJ           2.94735         6.04884        -5.19989
LJ          -4.31286       -0.561037         1.18961
LJ         -0.963157         1.57086         2.62477
LJ          -3.33041        -5.81665        -4.64224
LJ           3.42154        -3.01422        -2.41693
LJ           1.38853         6.21274         2.08505
LJ          -6.18196         4.98074          4.3764
LJ           5.43786       -0.798875        -1.70687
LJ            4.8202         4.96193        -3.70392
LJ           1.73063         1.46237       -0.940267
LJ          -6.10304         5.46257        -2.77044
LJ           4.88603        -1.55718        -1.46131
LJ          -4.42524       -0.761031         3.07292
LJ           -1.8344         6.34918        -6.17696
LJ          -1.32193        -3.36782        -3.43042
LJ          -5.69159         3.32964        -1.00841
LJ          -0.28178        0.323871         1.69148
LJ           2.39268        -0.29932       -0.887393
LJ           3.11304        0.453343        -4.98393
LJ         -0.411126         1.51136        0.673018
LJ           6.12928         2.25884         2.16775
LJ           3.40967         2.91916        0.634316
LJ          -4.29788        -2.16138        -2.61453
LJ          -6.27167         1.56278          5.5002
