108
#Comment!
LJ          -1.30985         2.90513        -4.04573
LJ           2.48427        -2.75426          3.4734
LJ           4.46615        -5.49336         6.10897
LJ           5.70612        -5.93882       -0.370053
LJ          -2.68027        -3.11426        -3.31069
LJ         -0.483858        -4.31414        0.286907
LJ          -3.56163         -3.8546       -0.356761
LJ          0.215853        -5.10705         -4.5651
LJ           4.51578         5.17007         5.24023
LJ           6.24123        -3.18505        -1.31944
LJ          -0.94277        -2.85049        -4.26671
LJ          -5.51742         4.53862         2.86955
LJ           2.95438         -3.6521        -1.99672
LJ          0.261077         5.86375         1.84319
LJ           2.84083         4.84906        -5.95757
LJ           2.45926         1.14992         5.43548
LJ           5.93263        -1.83285       -0.183521
LJ           2.59356       -0.938706         3.29404
LJ         -0.369638         3.10932        -4.40943
LJ           5.60569         4.58567         2.01297
LJ          -6.32708         3.35507        -3.03634
LJ            -2.267         3.56674        -0.21363
LJ           2.96264        -6.39407        0.292762
LJ          -5.41915         1.24322         4.90436
LJ          -2.63429         1.00275         2.14416
LJ          -5.18637         6.11953        -5.32539
LJ          0.747127         4.11079         5.25852
LJ          -2.60019         -6.3243         5.80927
LJ          -5.90669         4.67392        -3.37426
LJ         0.0526502     -0.00603867         5.30747
LJ          -2.43556         1.31323       -0.928045
LJ          -2.74013        -3.55464         2.00525
LJ          0.698651        0.452518        -5.38516
LJ          -2.39544        -1.54085        -5.66594
LJ           1.93395          3.2074          4.0698
LJ          -3.30092         0.87616        -2.04565
LJ          -4.33131        0.347488         -1.1052
LJ           -1.3581          5.5815        -4.15211
LJ          -6.26931        -2.50856         2.20566
LJ          -5.33476          5.8962         1.57725
LJ          -4.06086         1.32149         3.50553
LJ           5.21664        -2.62178          6.2895
LJ           6.18011         -3.2207         4.65411
LJ           2.87675        -1.72492         -1.4697
LJ           4.90331        -2.72346         6.30998
LJ           4.60626         5.21372         3.52781
LJ           2.64449         5.64056        -4.19534
LJ           2.11239        -2.33128        -5.60085
LJ           4.29543         2.79434         1.47074
LJ          -4.15133       0.0657537        -3.23312
LJ          -5.27035          3.2307         3.65675
LJ          0.365118         4.76112         6.38831
LJ           4.35513       -0.923646         4.06232
LJ          0.870489          5.8709        -6.22802
LJ          -3.97928         3.29375        -6.26869
LJ          -2.31533          5.2787         2.66075
LJ           2.85527         6.22885       -0.362666
LJ          -1.82711         2.00383          2.6213
LJ         -0.238379        0.613043         3.07294
LJ           1.42657        -1.02914         3.38893
LJ            6.0935         3.01531        -5.43712
LJ            -3.276         5.08957        -6.41933
LJ         -0.930079        -3.12043         4.48629
LJ           -5.4033        -2.37085        -2.99291
LJ           2.67266         1.09219        -4.51572
LJ          -4.21224         4.35474         1.04852
LJ          -2.86848         4.02511       -0.541513
LJ         -0.975446       -0.248579         3.06867
LJ           1.30221        -1.53641        -4.31052
LJ          0.321732         6.02278        -2.90374
LJ            5.4337        -4.94206          -5.423
LJ           2.86394         -2.6944        -2.23647
LJ          -0.87188        -2.21388        0.684405
LJ          -2.32564       -0.391233         4.21444
LJ           4.67826        -1.79689        -4.44572
LJ           2.55372         1.28335        -1.59505
LJ           1.60093        -3.60143         5.84433
LJ           2.95451        -6.34217        -4.02854
LJ           1.25714         -5.5009         4.89088
LJ          -5.93024        -5.90667        -2.84923
LJ           3.51288        0.456822         5.54506
LJ            -1.038         4.36536        -4.31666
LJ          -2.58558         6.04747        -5.82196
LJ           4.05856         3.83906        -3.77669
LJ            2.5757        -5.65138         -4.4953
LJ           -2.2144        -2.11421        -4.59444
LJ          -3.79601        -5.59848          2.9934
LJ          -1.08601         5.16236         2.52864
LJ          -1.91696        -1.95019         1.25674
LJ          -5.99676        -4.30591        -6.15316
LJ           1.44423          2.9315         -5.7832
LJ           -3.9997          5.2327         4.12333
LJ            -3.935        -3.85353        -5.79033
LJ          -6.08796         4.76718        -1.67771
LJ          -5.24396        -3.86076         1.26212
LJ           3.05199          2.8558        0.205043
LJ           2.61202        -5.05708         3.15066
LJ           6.12253        0.562548         6.02003
LJ            4.3399         4.87231        -5.18875
LJ           4.28407       -0.470367        -5.95731
LJ          -4.15355        -2.76269       -0.161204
LJ          -5.05217         2.53335         3.10024
LJ           -1.1837       -0.741888         5.86264
LJ          -5.08945         1.60302        -4.27532
LJ          -3.04284        0.556125        -4.75057
LJ          -3.21948        -5.28983         3.14632
LJ        -0.0346979        0.998248         1.41447
LJ           4.78052        -5.29703        -1.18316
