108
#Comment!
LJ           1.13515         0.81298        -2.03841
LJ           4.83145       -0.825766            4.95
LJ           4.43563        0.963548        0.158838
LJ           4.24713         2.48913      -0.0588265
LJ          -4.86558         6.18901        -4.15355
LJ           4.49205          2.5621          1.1504
LJ          -2.76919       -0.267329         3.53967
LJ           3.96156        -1.62322        -3.76073
LJ          -3.24978         3.45647         2.62979
LJ          -3.67702        -1.51293        -5.44623
LJ          -1.40306         1.29227        -5.42354
LJ          -3.52909         4.27173        0.506232
LJ           1.74182        -5.46055       -0.503259
LJ          -2.80012        -3.46385        -1.63535
LJ           -1.3813         2.42454        -4.98271
LJ           -0.7469        -1.97504          3.8536
LJ          -1.75705        -2.30539        -5.98526
LJ         -0.412155        -6.01444        -5.71469
LJ          -2.02714        -2.77792        -4.57932
LJ          -4.33334        -5.42486         5.39884
LJ          -2.30194       -0.154664       -0.839623
LJ           3.98944         6.14125         1.61773
LJ           5.84964         1.48123         5.43729
LJ           1.00588        -3.48669         1.45889
LJ          -4.10263       -0.613787      -0.0746078
LJ          -6.11528        -6.21976        0.167943
LJ          -5.95617        -4.99426        0.305646
LJ          -4.40125       -0.178637        -6.03065
LJ          0.535164         4.26602         1.45005
LJ          0.916817       -0.681188         3.03629
LJ           1.56895         4.72312        -4.58877
LJ           3.15039         5.95862        0.573246
LJ           4.82063        0.772504          4.6358
LJ           2.73001        -3.35227        -2.79851
LJ           5.46756         3.82098         2.17826
LJ          0.677778        -1.28788        -2.37587
LJ          -3.42278        -6.35506         5.16725
LJ          -2.91885       -0.204556         1.87714
LJ          -1.40058       -0.147398         4.74001
LJ          -5.63526         4.68478        -1.41084
LJ           5.52174        -2.47354        -2.29987
LJ           2.17252        -4.22722         4.53829
LJ         -0.757234        -1.25241        -1.29304
LJ          -2.58262        -1.27046         2.41744
LJ           3.05579         1.98235         4.53575
LJ           6.28992        0.821077         1.12136
LJ          -4.92409        -3.23737        -2.74889
LJ          -3.62047         -1.5584         6.39686
LJ           3.46854        -2.05337          5.4401
LJ           4.56514          0.3045        -5.05148
LJ          -2.41247        -3.12001        0.904809
LJ          -2.38878         5.30793         -3.4488
LJ          -4.52232        -5.86416        -1.88206
LJ           3.65984         4.73023        0.312017
LJ           1.41109         5.41172        -2.18152
LJ          -2.76983        -6.00887         6.07577
LJ            5.3837         2.93896        -2.98721
LJ          -4.45897         4.00358        -2.87689
LJ           4.96663        -6.41043         1.37036
LJ          -1.67805        -4.72812       -0.487317
LJ          -3.26642       -0.592623         6.32837
LJ          -2.50709         4.59817         2.68119
LJ          -6.14378          5.3143        -5.31969
LJ           5.13678         5.26918        0.963272
LJ           5.99942         6.22452         1.09834
LJ           3.42105          6.1344        -2.29656
LJ           4.79808        -4.94645        0.396582
LJ           1.90036         2.67713        -5.82806
LJ           5.07574        -1.29732         -2.6985
LJ           3.14887         3.28206          2.0018
LJ          -1.35507          1.2405         1.40071
LJ          -2.06577        -1.18453        0.996445
LJ          -4.90075        -4.56575        -2.82356
LJ          -2.76816        -3.77748         4.47254
LJ          -5.30857         -4.4572        -5.08746
LJ           1.61837        -2.39171        0.829117
LJ           3.09166       0.0522283         4.01024
LJ          -1.90283        -2.05865         3.72214
LJ          -6.12134         6.29604        -4.12192
LJ          -3.06681         -3.7239         5.94294
LJ          0.559535       -0.719947        -6.30892
LJ           4.02321        -1.80376        -2.52191
LJ           3.41582        0.283896       -0.898614
LJ          -2.10539       -0.859119          4.1272
LJ           2.17151         5.50708        -5.34483
LJ          -4.19736       -0.621148         1.11356
LJ          -1.16254         1.54151         2.67229
LJ          -3.84694         5.95827         -5.2788
LJ           3.29289         -2.6386        -1.97852
LJ           1.69238         5.99821         1.15371
LJ          -5.89854         4.71417         4.35905
LJ           5.58969       -0.626966        -2.14608
LJ           5.84387         4.85026        -4.00849
LJ           1.80079         1.26868       -0.477212
LJ          -5.59564        -6.44788        -3.08878
LJ           4.87165        -1.98788        -1.59053
LJ          -4.00971        -1.12218         3.23817
LJ           -1.3751        -6.10601          5.7987
LJ          -1.38106        -3.49313        -4.20614
LJ           -6.2577          3.6925        -1.00617
LJ         -0.771594       0.0177204         1.55786
LJ           2.29251       0.0964832       -0.590806
LJ            3.3921        0.602406        -4.56696
LJ          -0.52816          1.1629        0.408349
LJ           6.43089         2.44311         1.96833
LJ           3.72496         3.63345        0.925887
LJ          -4.04786        -2.78702        -2.59111
LJ           -5.9019         1.53455         5.86169
