108
#Comment!
LJ          0.860228        0.757086        -2.27744
LJ           5.67943       -0.537933         5.85096
LJ           5.11959        0.385973        0.193348
LJ           4.79399         3.79384        -1.39603
LJ          -6.06744         4.67639        -3.67564
LJ           5.07462         2.00013         1.30947
LJ          -2.24931       -0.593103         2.25033
LJ           3.36822         -1.1721        -3.78693
LJ          -3.85964         4.58007         3.24531
LJ           -3.4723        -3.14809         -4.9592
LJ         -0.325101         1.99523        -5.58237
LJ          -3.90999         4.87774       -0.224883
LJ           2.52128        -4.47501       -0.222634
LJ          -1.60736        -4.78803        -3.08301
LJ         -0.760305          3.7016        -4.55424
LJ          -1.81321       -0.999446         4.43965
LJ          -3.49433        -1.26904        -5.23168
LJ         -0.150455        -4.24731        -6.41709
LJ          -2.40936        -1.69579        -4.10533
LJ          -4.95545         -3.3656         4.03461
LJ          -1.81762        -2.02283        -3.00691
LJ           3.41134         6.25649          2.4938
LJ           5.63818         1.75558         4.00162
LJ         -0.274406        -5.28816         2.09826
LJ          -5.29299        0.801915         1.02686
LJ          -5.59421        -5.04228         1.78404
LJ           6.42894        -3.98217         1.51401
LJ          -4.14998        0.795348         6.01939
LJ          0.356033          2.7189         1.70138
LJ          0.389662        -1.02439         2.24792
LJ           1.33968         4.83759         -4.4338
LJ           3.02342        -5.52481         2.06202
LJ           4.85278         2.93615         4.85241
LJ           1.68126        -4.43877        -3.46225
LJ            5.4741         2.89049         2.34741
LJ           1.81023        -1.05328       -0.173041
LJ          -2.87588        -5.82952         5.90873
LJ          -1.30876        -1.22019         2.02825
LJ          -1.92673       0.0873233         3.65001
LJ          -6.16061         3.82821         -1.7494
LJ           5.35451        -1.44221        -2.04782
LJ           3.54756        -3.75095         5.10889
LJ          -2.03879        0.148527        -1.28549
LJ          -2.51223        -1.66717         2.85283
LJ           1.21444       -0.150144         3.18376
LJ          -5.88531         1.04387         2.43381
LJ          -6.05555        -2.70097        -2.71815
LJ          -3.78989        -2.34131        -5.64079
LJ           3.54888        -3.11065         6.14837
LJ           4.34806         0.10216         5.11915
LJ          -2.98294        -2.46198         1.70145
LJ          -1.90337         4.05041        -3.84966
LJ          -5.44715         -4.5389       -0.258666
LJ           4.07074         3.62322        0.634336
LJ          0.673479         5.05498        -2.17666
LJ          -2.23479        -4.86467         6.20861
LJ          -6.14721         2.83335        -2.23252
LJ          -4.72748         3.28037        -3.44719
LJ           5.99393         6.23794         2.86363
LJ          0.504274        -3.29609       -0.288612
LJ          -3.80713        -1.55436         5.75663
LJ          -2.23246         4.94738         3.83963
LJ           6.17318         3.83137        -3.63734
LJ           6.26811         3.57734        0.930887
LJ          -5.97073         5.34783      -0.0763072
LJ           3.40783         6.10002        -3.74723
LJ           6.20993         5.31924        0.886428
LJ           2.28135         2.62603         5.60899
LJ            4.1021        -1.53905        -2.37387
LJ           4.14272         3.23704         1.62919
LJ         -0.923558        0.698849          1.4656
LJ         -0.488116       -0.848879          1.1662
LJ          -3.11835        -3.71127        -2.31985
LJ          -3.13749        -3.63541         3.06576
LJ          -5.88599        -6.01774         6.05468
LJ           2.62986       -0.660107        0.531134
LJ           1.74106        -2.56925         1.71698
LJ          -1.32217         -2.0664         2.66182
LJ           5.41476         6.00848         -4.7831
LJ          -3.17552        -3.19237         4.19355
LJ          0.510102       -0.849592         5.13679
LJ           3.67879        -2.59463        -1.75427
LJ           3.06828        0.354501       -0.976835
LJ          -1.60485        -1.13141         3.21295
LJ           3.79849        -6.31056        -4.97982
LJ          -4.55887       -0.241538         1.04807
LJ         -0.691692         1.38616         2.19563
LJ          -2.75189        -4.52008        -3.92057
LJ           3.70379        -3.09037        -2.82476
LJ           1.09722        -6.46036          3.1063
LJ           6.42458         5.27983         4.39006
LJ           5.70689       -0.521287        -1.68385
LJ           3.93655         4.85518          -3.397
LJ           2.10565         1.91913       -0.744015
LJ           6.32289         4.50432        -2.70674
LJ           4.52597        -1.79787        -1.30459
LJ          -4.78681          -0.336         2.82714
LJ          -2.49402         5.98815        -5.16551
LJ          -1.33098        -3.33055        -2.50695
LJ           -5.1243          3.2047        -1.20814
LJ          0.318721        0.722368         1.87592
LJ            2.4439       -0.667297        -1.17978
LJ           2.85258        0.268388        -5.48888
LJ         -0.374507         1.74622         1.29149
LJ           5.69323         1.77482          2.2559
LJ           3.18082         2.42656        0.803176
LJ          -4.69434        -1.61435        -2.65926
LJ           6.17227         1.59216         5.07712
