108
#Comment!
LJ           1.14122       -0.686403        -2.06893
LJ           0.13278         6.04353        -1.44243
LJ          -1.50247        -3.69242         3.39863
LJ          -3.23711         3.30502        -1.42144
LJ         -0.799927         2.86574         6.15951
LJ          -6.22995         2.18586         4.39156
LJ          -5.65916         6.16688         3.21794
LJ          -5.31592        -2.43819        -2.82951
LJ          -5.30776        -5.33648          6.2953
LJ           1.84707        -5.99171        -4.13587
LJ           4.78951         1.47288       -0.188712
LJ           2.43748        0.698722         1.28537
LJ          0.467065         4.47438        -6.25954
LJ          -1.00963        -0.52411         1.03523
LJ          -4.73019        -3.28411        -1.50518
LJ           1.04566        0.664343         3.03955
LJ          -1.58695         6.28795         2.43438
LJ           3.45779        -2.78377         2.82473
LJ           1.96532        -6.19314        -4.35238
LJ           1.16686        -3.69118        -6.19388
LJ           5.32364        -4.52464        -3.80652
LJ          -4.73938         5.97985         1.24419
LJ          -3.53631       -0.323812          1.9116
LJ          0.375706        -5.24738         3.33593
LJ         -0.861712         -2.6877         3.16307
LJ          -5.98364          1.5411         1.56173
LJ           4.51734        -4.52098        -5.04872
LJ          0.261794       -0.223609        -6.31138
LJ         -0.912314        -5.85786         3.34381
LJ           1.64869        0.086455        -1.37415
LJ          -2.59444        0.303206        -4.05793
LJ          0.371037        -1.46981         1.43049
LJ           1.00527        -2.11994         2.56139
LJ           5.24335       -0.912612        -4.91252
LJ          -1.72295         5.73187         2.84634
LJ          -1.95912         6.26287         2.90542
LJ          -4.87869        -3.57807         5.59276
LJ          -2.84744        -1.12975         4.15853
LJ           4.33051       -0.282238        -4.81127
LJ          -6.05513       -0.338257         1.98726
LJ          -2.28888        -4.71806       -0.110408
LJ          -2.84031        -1.89237         3.22454
LJ            2.6797       -0.579206        -3.75574
LJ            3.3144        -4.16952        -4.99153
LJ           3.82872        0.957693        -3.21207
LJ          -4.28436         5.02521         4.47813
LJ          -4.33131        0.571304       -0.513359
LJ           4.59082      -0.0667834         1.18555
LJ          -2.24676         6.32801         2.22391
LJ           3.45365       -0.136436        -0.92113
LJ          -0.64763         5.43144        -1.50057
LJ          -4.51834         2.26472        0.182444
LJ          -2.40121         3.79184         1.91573
LJ          -1.59231        -1.90956         4.30207
LJ          -3.14489       -0.167233         3.67151
LJ          -6.34171         4.47276        0.537172
LJ          -1.22166        -4.27986         4.05378
LJ          -6.27007        -2.12447        -4.27312
LJ           -1.1683          5.4117        -6.32571
LJ          -4.19786        0.938055         6.06177
LJ          -3.84969         5.81997        -4.49004
LJ          -2.08245        -1.34734        -0.39733
LJ         -0.282587         0.27431        -0.46124
LJ           4.56733      -0.0877208         6.24365
LJ          -1.99157         4.58805        -2.47558
LJ           -6.0995        -6.06311         6.41359
LJ          -3.47417        -2.63716        -6.29466
LJ          -2.18342        -2.86244         4.61105
LJ          -2.15092         1.03499        -3.95441
LJ          -1.37714         2.01911        -2.35462
LJ           5.29789        -1.54077       -0.630712
LJ          -4.55304        -4.64518        -4.41768
LJ           -3.8091          3.3559        -5.66837
LJ           5.12955         2.79468        -3.38985
LJ          -2.60722         5.73913         5.70073
LJ           3.28924        -3.35669        -4.98224
LJ           2.24967         3.96306         3.07839
LJ          -6.18734         4.79726         -2.7577
LJ            4.9707         4.39871       -0.662276
LJ         -0.134434         1.92774         4.55301
LJ          0.766055        -2.70594         4.91132
LJ         -0.838172        -5.62016         2.95694
LJ          -3.54798        -5.36567       -0.324251
LJ          -6.01449        -5.13152        -4.17594
LJ           2.90485       -0.939703         1.02622
LJ          -4.13286        -3.15572        -4.07432
LJ           1.96977        -5.82071        -5.92033
LJ           4.23248      -0.0717872         -4.2181
LJ          -3.56204          2.9544         1.17903
LJ           2.64381         1.79692        -2.19749
LJ          -5.90321        -0.12666         5.29231
LJ          -4.50666         1.32986         6.28547
LJ           5.64334        -5.61791         4.97596
LJ           5.23567          1.1158       -0.659123
LJ           5.58274         3.07248         4.75678
LJ          -1.93787        0.120653         5.50491
LJ          -3.16454         3.94365        -3.35512
LJ          -6.17582         3.65631         6.32647
LJ           4.73152        -5.54925        -1.39281
LJ          -3.02906      -0.0870041         2.30574
LJ         -0.140986        -5.50503         2.27636
LJ           3.96375       -0.595754         3.68607
LJ           2.73568         3.35755         -6.3082
LJ           5.17651        -0.81244         1.05899
LJ           1.81222        -2.48985         5.97929
LJ          -5.67591         5.50004        -2.62205
LJ           5.28366         5.78515        -5.08058
LJ          -1.69204       -0.976021         6.36122
