108
#Comment!
LJ          -2.77624         5.94103        0.246719
LJ         -0.287075        0.941023        -1.79504
LJ         -0.743685      -0.0373537          2.4384
LJ          0.396362        0.101234        0.288065
LJ          -4.48398         5.99258         1.16698
LJ            3.1004         2.64497        -6.30915
LJ          -6.13456         -6.3357         2.85129
LJ          -4.96272       -0.464039        -2.05144
LJ          -6.29615        -5.45307         1.11456
LJ           1.91417         1.10834        -3.25062
LJ           3.84617         2.87277         5.81716
LJ            4.4221         2.69885         -1.0792
LJ          -1.52009         2.13325         1.41325
LJ          -3.33007         4.10186        -3.99467
LJ           5.85827        0.401923        0.593751
LJ          -4.52074         -5.4925        -2.39361
LJ           4.93022        -3.05048        -5.95368
LJ          -2.34784         1.32623        -4.45548
LJ          -2.55628         3.84661        -2.80769
LJ          -3.95712         5.94275         3.23835
LJ           4.18859          -4.766         1.46749
LJ           3.57625          -3.665         4.07228
LJ          -3.66059         -3.5527         5.24708
LJ           5.57617         1.07015         1.17921
LJ           2.15998         0.66171        -5.18331
LJ          -3.67561        -6.04624        -5.10997
LJ           1.58224         3.77215          0.6616
LJ           5.62758         -5.7758         4.06285
LJ          -5.18547        -4.31273        -6.05221
LJ         -0.126884         1.14159         2.66946
LJ             3.869       -0.697481         4.27621
LJ          -2.61103         2.90804         1.68875
LJ           -2.5712        -3.09377        -4.80595
LJ           1.37694         5.11196         3.66218
LJ           2.69664         5.44025         3.59364
LJ        -0.0870127       -0.222498        0.826108
LJ           3.11288         3.02499         1.36243
LJ          0.897152        -5.96781       -0.295141
LJ           2.24289         4.45583         6.19285
LJ           3.79538       -0.946998        -4.13541
LJ          -6.13525         4.40704        -2.57128
LJ         -0.191944         4.85252         3.36243
LJ           2.79256         1.59628        -2.31201
LJ           3.20699         1.39453         2.68128
LJ          -4.35514        -5.37619          3.9417
LJ          -3.03988        -4.89775        -5.34542
LJ         -0.477249        -6.06775         4.65453
LJ          -5.49728         3.01511        0.229039
LJ           4.90951        -1.32863         3.06264
LJ          -1.46126        -1.26649        -4.13935
LJ           3.86793        -6.45291        -3.08312
LJ           6.21193         4.24076        -6.06659
LJ          0.326975        -6.11526        -1.81539
LJ           2.51122        -4.06758         6.40668
LJ           5.84671        -5.99907         -5.1804
LJ            1.7193         3.68991        -1.43924
LJ           1.70061        -6.00422        -2.02874
LJ          -3.78737         5.01556         1.73181
LJ           1.90602        -1.02453         4.74375
LJ          -2.41781          2.8934        -1.37959
LJ           3.20364        -2.70405        -6.24917
LJ            4.8052        0.943339        -5.81751
LJ          -1.15404          4.4601         6.38999
LJ           4.54064        -4.48526        -4.73627
LJ           1.03537         0.45636         -6.2358
LJ          -3.65103         6.14502        -1.15628
LJ           4.17375        -5.93208        -3.11076
LJ           -4.0323         1.27689        -3.96697
LJ           3.23063        -1.49627        -1.17691
LJ          -4.23799      -0.0233549        -1.99129
LJ           4.35595        -4.76548          -6.042
LJ          -4.07605         -3.9656       -0.559645
LJ         -0.282832        -2.71015         6.46035
LJ          0.367973         1.30369          5.9837
LJ          -3.96564          6.1267         -1.5029
LJ          -4.90898        -4.21776         1.22773
LJ          -3.54045          3.2348         2.04259
LJ           5.24824        0.718686         1.94219
LJ           3.88011        0.881022        -3.59448
LJ          0.631071         3.28368         2.68686
LJ           -3.2019         5.80329        -0.90778
LJ           3.77012        -5.37977         0.63697
LJ           -3.9003       -0.377231        -4.47112
LJ           5.73205        -2.82465        -5.46659
LJ           2.40182        -6.29354        0.418763
LJ          -2.82964         1.19643       -0.720455
LJ           1.65727        -4.06902         -4.7863
LJ          -5.94897         -2.1848        -5.65665
LJ          0.195901        0.775546        -6.42303
LJ          -2.35302        -2.43306       -0.813368
LJ          -2.15969        -6.39526        -3.75692
LJ           5.38854        -5.51777       -0.756611
LJ          -1.34598         1.55312         4.01052
LJ            5.9516        -5.56823         1.59116
LJ          -4.79275       -0.271261         6.07492
LJ           5.90886        -4.83306         -3.5773
LJ          -3.29047        -5.61621        -2.62707
LJ          0.407457        -5.78933       -0.011311
LJ           2.06256       -0.896745        0.819841
LJ          -4.47472        0.063327        0.961607
LJ           3.31698      -0.0346468        -3.43319
LJ           3.42022         2.06659         2.66291
LJ          -4.39051         4.44179        -1.22118
LJ           0.73862         3.72904        -1.40103
LJ           3.46384       -0.224457         5.84438
LJ          -2.55297         1.70882         2.04689
LJ           2.48964         4.13116         1.31959
LJ           5.36659         4.89683         6.45218
