108
#Comment!
LJ          0.643148        -5.86206         -1.4962
LJ           3.61808         2.21956         1.16954
LJ          -1.83228        -1.90786        -4.29157
LJ           4.61052           1.178        -5.65782
LJ          -4.35523         6.04813       -0.293002
LJ           3.61512         1.42775       -0.305519
LJ            1.2877        -4.06195         3.99961
LJ          -5.83727         2.30598         -1.7977
LJ           -2.6219        -4.45796         1.85227
LJ           4.87891         4.61074         6.12547
LJ          -3.79545         -3.7153         5.39476
LJ          -3.84911         4.86461         5.28084
LJ          0.684259         3.91421         1.71053
LJ          -0.99286         4.76711         4.69178
LJ           0.82333        -1.44296         6.38357
LJ           2.41506        -5.77219        -5.88683
LJ         -0.964845        -5.83683         6.46164
LJ           2.79231          5.3221         5.16159
LJ           1.87215         0.24426        -5.38382
LJ           6.12176         5.40948        -1.99859
LJ           5.23625         6.21071         6.12717
LJ          -4.41202        0.316399         1.60035
LJ           5.68976         1.94352         1.80779
LJ          -5.36171          0.2153       -0.686061
LJ           5.08951        -5.31873         -5.6324
LJ          -1.08659         -4.2414         6.17294
LJ         -0.932674         2.67578          2.8811
LJ             4.487        -4.25232         3.50471
LJ          -1.18722        -1.75689        0.787311
LJ          0.646542        -2.26803        0.875229
LJ            2.7335         -4.3144         1.33869
LJ            6.3328        0.119382        -3.22773
LJ           5.91083        -1.53602        -5.02448
LJ          -3.88309         3.96279        -5.66669
LJ          -5.98657         2.25953         1.06524
LJ          -4.71038        -5.00478        -1.56056
LJ           3.95845        0.197427        -3.31477
LJ          -6.23039        -5.31969        -3.76117
LJ           6.26174         6.44856        -5.83431
LJ          -4.24931         2.60882         1.38007
LJ           1.21891         -3.2802        -1.45999
LJ           5.88968         6.02629         4.09452
LJ           5.57934        -3.20314         2.46781
LJ           -2.2507        -1.04586        -4.98206
LJ          -3.08225        -3.85972         6.12296
LJ            1.4589       -0.559543        0.795103
LJ          -1.76022        -4.92075        -4.20759
LJ           1.14484        -2.78863         2.37143
LJ           1.63204         -3.5125        -1.83037
LJ          -1.64197        -3.15406        -6.02619
LJ          -4.24666         0.55895        -5.31194
LJ          -2.32297        -1.44365          2.8816
LJ          0.206333        -5.48507        0.026632
LJ           1.93595        -1.01401          4.4917
LJ          -5.32799         5.29067         2.85988
LJ           4.75471         6.07092         4.66007
LJ           2.89232        0.913075         4.71784
LJ           5.00778         3.31374        -3.84842
LJ           6.13687        -2.66939          5.7126
LJ           1.66441         2.69477         5.10807
LJ           -6.2503        0.143492        -3.24051
LJ            2.6571        -4.68247         3.95373
LJ          -2.59793         4.02002      -0.0035203
LJ           3.07117        0.735711        -2.39944
LJ           4.27093        -6.03345         1.16819
LJ          -6.25132         1.82684         2.26647
LJ          -1.24959         -5.9265        0.481979
LJ           3.49677         3.96975         6.15979
LJ           1.85923         2.52872       -0.711088
LJ          -5.69636        -2.16959        -5.88694
LJ           5.93531        -5.10426        -1.26952
LJ         -0.119304         4.89283        -0.79167
LJ           5.30198         2.28303        -3.11494
LJ            3.8589        -3.69755        -4.54936
LJ           1.56344        -3.96413         2.93621
LJ           6.20532         1.42031        -2.69014
LJ           3.81919        -1.65631          4.0255
LJ          -1.58777         1.62713        -3.90997
LJ         -0.761141        -3.15381        -2.89179
LJ        -0.0376299        -2.30383         2.39252
LJ          -1.44493         4.82407         6.40858
LJ           6.31796         3.07788        -2.44225
LJ           1.94126         5.15701         4.02635
LJ          -3.83636         3.50648         4.45436
LJ          -2.51368        -5.04223         1.08999
LJ          -2.78633         6.12385         3.70951
LJ          -6.10067         4.67764        0.848208
LJ          0.716676       -0.186658         1.75367
LJ           2.09882        -5.96277        -5.23375
LJ          -6.45868         3.09574        -5.42218
LJ         -0.388256        -2.55832         6.14004
LJ          -1.90923        -4.93299         5.67408
LJ          -1.32263         3.78049         2.34961
LJ           2.58957        -2.92638         5.17799
LJ           1.06015          5.7777        -4.78105
LJ           1.24718        -6.40662          5.0886
LJ          -6.43945        -1.93322         4.04502
LJ           -3.3759       -0.648026         3.79962
LJ           4.66606        -1.35412         2.34122
LJ           5.36458        -2.50919        -6.08133
LJ           2.14861        0.368594        -1.99515
LJ           3.89141        -5.27189       -0.559355
LJ           3.87061       -0.907062         4.79992
LJ            4.9641         2.52792         3.83333
LJ           5.01036          3.1091         4.24701
LJ           1.04027          2.7103        -1.90417
LJ          -4.23434         6.17036         1.60805
LJ          -5.10005        -1.71446         5.66889
