108
#Comment!
LJ          -5.57398        0.316378         3.18146
LJ          0.531186        -1.61772         4.58806
LJ           2.09918         -5.8378         6.34902
LJ          -4.51869         0.86435         3.97999
LJ           3.48261       -0.820548        0.805042
LJ          -5.34235         5.27981         5.01187
LJ          0.516206        -1.21307         6.01886
LJ          -3.91836       -0.930367         3.85368
LJ          0.514218        -1.35579         0.40294
LJ          -5.52239         1.08253       -0.951876
LJ          -3.10649        -3.75348         1.69373
LJ          -4.52128        -4.34857          1.6844
LJ          0.474473        -1.04989        -1.12388
LJ           -2.3566        -3.26932        -3.77675
LJ          -2.04374         5.90023          1.1396
LJ           -3.9484          4.5144         5.55804
LJ         -0.444237        -4.01089         -1.4565
LJ          -5.81729       -0.999962          3.6913
LJ          -3.29681        -1.86745         2.26652
LJ          0.548562        -4.98663         4.06497
LJ          -1.26092       0.0493572         2.41641
LJ           1.65557         5.74132        -2.66457
LJ          -6.45605        -6.43924        -2.00328
LJ          -3.73613        0.852067         2.52188
LJ           5.53892         1.44724         4.80815
LJ          -4.10029         5.12899        -2.31257
LJ           5.94156        -3.68253        -5.27238
LJ          0.129412        -5.68214          1.8567
LJ           6.13617        -4.39768         1.29132
LJ           5.36552        -3.68049        -3.81989
LJ          -5.14269        0.288778        -2.10292
LJ           -2.4075         -6.4451        -6.15058
LJ          -1.05743         3.39822        -4.73003
LJ           1.77203        -5.80435      -0.0983244
LJ         -0.965137         4.53951      -0.0551842
LJ          0.259076         -6.3077         -3.1142
LJ           -3.1839        -2.74475         4.45372
LJ          -5.55921         2.45485         5.83483
LJ           2.90408         4.41264         -1.5204
LJ           2.52305         -2.1876        -5.94757
LJ           1.82988       -0.839059      -0.0245275
LJ          -6.20773         4.85448        -1.16356
LJ           4.90178        -3.12839         -4.8298
LJ           1.59364        -4.68402         2.93304
LJ           3.91864        -3.99593        -4.68313
LJ           4.26398         3.29759         1.17025
LJ          -2.68316        0.230873         0.21611
LJ          -3.26103         5.12297        -2.80139
LJ          -6.40592         3.84549        -4.72653
LJ          -1.05199        -6.12178         1.77035
LJ          -1.73322         2.34378        -4.43699
LJ          -4.23605        -6.21378        -4.72569
LJ          -2.21673        -2.00121         2.47138
LJ           5.09181       -0.457677        0.751244
LJ          0.661081        -1.71802        0.311668
LJ           2.52448         1.62509         3.56785
LJ           4.09822        -3.48659       -0.429954
LJ          -4.17384        -3.10427        -5.84689
LJ           5.63833         2.93533         5.79467
LJ           6.25089         5.20435        0.202965
LJ          -6.03691        -2.17464         1.23423
LJ          -4.79833        -2.43619         2.08763
LJ           4.59485        -4.71324         1.37643
LJ           4.54834        -1.24591         4.43562
LJ           1.41938         4.07727        -1.50658
LJ           3.76832         6.36862        -3.28621
LJ          -5.66473        -5.76195          2.8443
LJ          -1.34389        -3.48157       -0.760344
LJ          0.456219        0.604753        -1.04861
LJ           2.33217         3.09108         5.27942
LJ           4.52133        -2.13158         2.77004
LJ          -2.17374        -2.88796        -2.70251
LJ          -2.52834        -1.19292         2.01989
LJ           3.52602         3.27611         -4.8039
LJ          -5.91394         -3.2096        -5.95658
LJ          0.423504        0.996806         5.09158
LJ           -2.4771         2.90868        -3.66004
LJ          -4.99504        0.785841        -1.45343
LJ          -2.66741          4.7971        -1.12261
LJ           3.89302       -0.285462       -0.461712
LJ          0.179206         4.68695       -0.261851
LJ          -1.95798         4.34718          5.6962
LJ           1.58776        -1.18562       -0.118877
LJ          -1.88891         5.74978         3.01175
LJ          -4.01104         5.59123        -5.05989
LJ           2.06809        0.898098         4.31328
LJ         -0.475162       -0.229041         5.88048
LJ           1.28381         -3.0715        -5.64055
LJ          -1.14681        -5.61113        -2.67935
LJ          -3.30738       -0.478002       -0.533985
LJ          -2.98612         2.21859        0.464754
LJ          -1.37196         2.95631         4.39255
LJ        -0.0282746        -5.49421        -5.88798
LJ          -2.88803         3.50184         4.18467
LJ           3.16216        -2.68558         2.20826
LJ         -0.161071        -6.04262       -0.580015
LJ          -4.46296       -0.995634         4.14733
LJ            6.2864        -5.82323         1.63167
LJ          -1.78327         1.10329        -0.90596
LJ           5.96129         4.25422        -1.84453
LJ           5.11395         6.45719         1.73776
LJ          -5.06429         5.37798         2.19104
LJ          -3.73316         4.04509        -3.24719
LJ          0.474899         4.81907        -4.27346
LJ           5.79581          1.4963         5.80226
LJ          -2.39784         3.87177       -0.871021
LJ          0.398165        -5.83327        0.828544
LJ           -5.6518        -1.29369        -5.13548
