108
#Comment!
LJ          -4.35237        -1.96838         3.03045
LJ            3.5978         -1.7074       -0.372432
LJ          -3.42183        -1.18574        0.251647
LJ           3.34865         -3.0422         3.11051
LJ          -1.89706        -2.27016        -6.44462
LJ          0.122085         3.63637         -4.1491
LJ           5.26037        -3.27379         5.93911
LJ          -2.60195         5.60379        -2.76829
LJ          -1.20874         -1.8479        0.246625
LJ          0.358032       -0.909672         6.11875
LJ          -3.94295         1.92856        -3.13387
LJ           3.28599        0.877653          1.2038
LJ           3.08198        -1.67183        -3.37269
LJ          -5.54225        -3.69333         2.52935
LJ          -5.82482         4.53216         4.17558
LJ           1.13657        -4.18421        0.753755
LJ          0.669858         3.90006         2.98756
LJ           3.80461         3.47224        -2.89735
LJ           2.78584         -2.4675         4.01224
LJ           6.32147         1.95075        -3.53422
LJ        -0.0731545       -0.144341         6.37074
LJ         -0.198655         2.58639         1.30112
LJ           4.41608       0.0188873         2.34974
LJ           2.76109         -1.0037         5.91013
LJ          -1.37299        -4.42874        -0.12325
LJ           1.52201        -5.32836        -5.45676
LJ         -0.927967         1.63865        -3.90321
LJ           6.26978         5.77379         4.42732
LJ          -3.14805         3.79066        -3.20353
LJ           4.78475         2.85787         5.45106
LJ           1.57876        -1.50702         2.23281
LJ         -0.456066         -3.6444         6.44025
LJ          -4.71635         2.02575         5.98787
LJ           4.52667        -1.81181        -3.50762
LJ           4.62653       -0.350588        -1.61048
LJ          -5.23124        -4.18117         5.48927
LJ           2.79846         4.93493        -4.08321
LJ          -5.54333        -3.90107        -5.98498
LJ           2.25955        -4.71927        -2.51892
LJ           6.05424         1.42177          1.1454
LJ          -3.97537          4.9198         4.29913
LJ           4.30837         4.95426         6.28795
LJ           4.37731           3.166        -3.70669
LJ          -6.34161         1.25765         5.33184
LJ           -5.3886        -5.33338         2.12425
LJ           3.45472         4.54416        -5.49076
LJ          0.659464         2.79879        -6.43291
LJ           1.86606        -1.78356       -0.801711
LJ           -2.5726        -5.19093        0.132321
LJ           3.42851         1.91865        -5.18033
LJ          -2.92546       -0.769722         2.12119
LJ           2.49566        -4.51768         5.14015
LJ           3.69352        -3.91536         2.89701
LJ           3.15997         1.31946        -4.07885
LJ          -5.17031         4.66418         3.69199
LJ          -1.71833        -1.90933        -5.03361
LJ          -3.12018        -1.69949        -2.62886
LJ          -1.57941        -1.67178         6.18044
LJ           1.40239         2.42926        -2.25845
LJ           4.60635         -5.9816        -5.19821
LJ           6.06598         4.09758         0.19803
LJ          0.776931        -5.44099         3.29134
LJ          -1.95067        -4.17165        -4.97263
LJ           2.35232        -4.03911         4.01802
LJ           3.40515           2.155         2.29452
LJ          -4.98652         3.95694         1.88692
LJ         -0.696767         4.17361        0.268631
LJ         -0.572121         1.51543       0.0463946
LJ           5.57169         5.09014        -1.14307
LJ            2.8821        -3.57487         2.88901
LJ          -2.58745         2.74842        -3.67605
LJ          -3.33986         1.48997        -1.63516
LJ           2.98961         2.12327         2.09143
LJ          -4.33404        -5.81907        -6.06227
LJ         -0.674702        -5.72095         3.63134
LJ          -3.89542         4.78984       -0.884284
LJ          -3.81446          3.6299        -5.85788
LJ           2.75859        -0.27601        -6.32681
LJ          -5.44388        -5.29681       -0.445954
LJ            1.9123         5.90912         -4.8885
LJ          0.229978         6.18627        -5.41532
LJ          -4.31305        -1.66386        -5.14519
LJ          -3.95906        -1.04471        -4.98828
LJ           4.20864        0.915955        -3.31761
LJ             5.835          2.4077         0.18246
LJ          -2.94584        -2.77012        -4.44279
LJ          -5.74336         4.85738        -5.29508
LJ           4.93006         3.66117         1.55446
LJ         -0.240257        -4.38526         5.47882
LJ          -3.87507         1.63133         1.88582
LJ          -1.90043        -2.80257       -0.479802
LJ         -0.751851        -3.54934        -4.25055
LJ          -4.58918         1.51318         3.48086
LJ           5.46136        -4.87347        -1.41922
LJ          -3.71609         6.24225        -1.74745
LJ           6.06494         5.55082        -4.16898
LJ            1.9501        -3.15595         4.48328
LJ           6.00802        -3.02764        -3.38623
LJ          -1.89719        -5.96264         4.10483
LJ           5.97255        -4.67753        0.776908
LJ          -5.41657         6.42694         2.90549
LJ           2.83586        -3.65611         3.16971
LJ           5.23126         3.54186         5.14478
LJ          -6.05188         1.61464         5.98556
LJ          -5.33596       -0.995461        -0.66546
LJ           5.76479         4.13533         4.75222
LJ           1.98796         4.28476        0.129447
LJ          -3.83087         3.22626        -5.15406
