108
#Comment!
LJ          -3.26286        -2.32113         -1.5927
LJ            1.7114        -3.26511         1.29476
LJ            1.7932        -5.00771         4.82911
LJ          -2.05505        -4.21226        -3.50895
LJ          -2.56299         5.37165        -6.03176
LJ           3.68613         2.11866        -4.78939
LJ           5.52128       -0.789277        -4.93439
LJ           1.66516         1.44902         5.17391
LJ           6.13726         5.16801        0.504557
LJ          -5.74378         5.39492        -4.57973
LJ           5.47595         5.45807         3.30864
LJ           3.98999        -3.08177         1.53477
LJ           4.45614         4.23297         5.70368
LJ           3.05306         2.92975        -5.02675
LJ           5.75026           1.826        -1.15487
LJ           6.10946        -5.14453         3.05048
LJ           2.40564        0.299751        -1.24098
LJ          -3.64198        -5.74806        -1.44414
LJ          -2.26345         6.32982        -4.42363
LJ           4.38453         1.82494         5.64974
LJ          -3.01515        -6.04294         1.21103
LJ          -6.31381         2.92838        -3.16242
LJ           3.42224        -5.41177        0.719863
LJ          -4.97868        0.931963         3.79276
LJ         -0.932925        -4.43728        -4.02594
LJ           4.06893       0.0290982       -0.313625
LJ          0.683182          1.8468         3.72999
LJ           4.42712         2.17068       -0.671716
LJ           3.84902          2.6361         4.33467
LJ           3.03029        0.219575         1.14854
LJ           -6.1683        -3.96693        -3.66728
LJ           4.86975         6.16454        -5.30028
LJ           4.86004         6.27009        -3.29072
LJ           1.27858         -4.2318         5.68265
LJ           4.70832        -1.83159          6.3625
LJ          0.528071          2.1135        -2.43791
LJ          -5.71182         4.50057        -4.95925
LJ          -0.53253        0.689722         4.11188
LJ          -4.28975        -1.98608        -5.53269
LJ           6.21864        -3.48158       -0.259931
LJ           3.16783          3.2476        -5.48023
LJ           3.62372         3.41383         6.27617
LJ         -0.668899       -0.689411        -6.19037
LJ           5.28127        -5.43308         1.60539
LJ           3.19388        -1.51347         -6.4214
LJ          -3.50916        -0.57352        -5.74547
LJ          -1.58306        -2.47705        -0.92931
LJ         -0.549545        -5.25986        -4.10847
LJ           1.38432        0.677401         5.86306
LJ          -1.40244         6.44191         1.93951
LJ           5.66205         5.90413        -5.86459
LJ        -0.0208834        -6.23775         2.96092
LJ           0.84106         2.71012         1.01348
LJ           2.71208            2.74         3.92396
LJ           -6.4224         -0.7566         1.24605
LJ           3.28745         4.59528        -6.41321
LJ           3.60264        -2.56117        -2.40624
LJ           2.32639        -6.19472         1.25656
LJ          -3.22812         1.29659        -1.46059
LJ          -3.81138        -1.87768        -4.01438
LJ             5.918        -1.63476         4.67461
LJ           5.11999         1.34417         1.04796
LJ           3.67991         3.49413         4.40762
LJ          -6.14615       0.0785463          4.9132
LJ         -0.466851        -3.58764         4.33961
LJ           6.33787        -5.21763        -1.19477
LJ          -5.97668         4.31656        -1.99058
LJ         -0.334845       -0.417104        -4.34701
LJ          -5.22893         2.75429       -0.796713
LJ          -4.29123          5.6324         5.38204
LJ          -3.28224        -3.21245        -4.48471
LJ          -6.21955         1.99551        -1.26361
LJ          -4.96767          -3.981        -5.30939
LJ           1.18157         4.70761         3.98606
LJ          -3.46464         2.99049         5.58126
LJ          -1.43733        -1.77189        -6.27593
LJ         -0.132385         4.00371        -5.24257
LJ           3.19238         2.80055        0.886626
LJ          -2.71316        -3.76389        -1.27726
LJ         -0.349477         2.09506        -2.03571
LJ          -3.95812         3.74174         4.22952
LJ           2.65331        -4.36886        -4.51384
LJ          -4.61751        0.718001        -4.30464
LJ          -0.80738        -6.05364        -3.06809
LJ          -5.99161         2.91725         2.04654
LJ          -2.36705        -4.49482         1.23599
LJ          -4.62022         1.14693         3.84094
LJ          -4.55316        -6.46118         4.19615
LJ          -2.95429         1.53163        -2.12807
LJ           3.04557        -1.72602        -4.36136
LJ         -0.672908        -6.15045         2.13293
LJ           2.61318         4.96171        -2.17938
LJ           5.19731         3.70453         2.39583
LJ          -6.05891        -3.98893         1.31115
LJ         -0.848484        -5.19488         6.02808
LJ           6.09021        -5.02062         5.41582
LJ           -1.2671         2.55312         4.48974
LJ          -5.91738         3.17532        -1.28698
LJ           -3.2895         3.07754          5.5041
LJ            2.3207       -0.513794         5.51342
LJ          -5.87068       -0.100404            1.05
LJ            5.8124        -3.02014         5.45569
LJ          -2.08671         2.33576        -2.64904
LJ           2.89367        -4.79488       -0.928604
LJ          -4.03286        -2.86807         2.09711
LJ         -0.982419         2.16695          2.7014
LJ           1.44777         -2.7854         1.72201
LJ          -2.71087        -3.23397        -4.12734
