108
#Comment!
LJ          -4.51625          -4.395        -3.38461
LJ          -2.34396        -1.14757        -3.45161
LJ          -3.21622        -1.87514        -2.38031
LJ         -0.472888        -4.80465       -0.777087
LJ         -0.209225        -3.23567        -3.03024
LJ           1.66867         -3.0318         -5.0937
LJ          -1.61505        -2.10028       -0.980119
LJ          -0.24243        -1.98594         -2.5464
LJ           3.59075        -2.82203        -4.14111
LJ          0.796167        -2.47245        -2.62908
LJ           1.50404        -4.50514        -3.99421
LJ           1.66622        -3.52261        -1.37551
LJ          -3.71899       -0.988187         -1.1291
LJ          -2.02037        0.210348        -3.65667
LJ          -2.36653         1.31973        -1.64991
LJ          -3.04236        -3.24056        -1.12788
LJ          0.467867       -0.482435        -2.75219
LJ         -0.395782        -1.15674        -3.65403
LJ         -0.609336       -0.610585        -1.54676
LJ           1.13053        -1.15278        -2.02977
LJ           1.39067         -1.4437        -3.05979
LJ           1.31598        0.046299        -3.01049
LJ           2.22187        0.332147       -0.920332
LJ           3.95101       -0.638426       -0.986728
LJ          -3.90586        0.762929        -4.43327
LJ          -4.22477         1.62908        -3.31672
LJ          -3.14177         1.14724        -3.07839
LJ          -1.09233        0.470821        -3.03362
LJ          -3.17733         1.36536        -5.30971
LJ          -2.28195         1.83499        -4.41049
LJ          -2.31661         1.95908        -3.08195
LJ         0.0224086        0.912974        -2.92548
LJ          0.853287       0.0876701        -1.44074
LJ          0.485905         1.62578        -3.46633
LJ         -0.376392         2.46806        -1.80701
LJ           2.33455         1.40399        -2.29184
LJ          -1.98542        -4.87464         0.62404
LJ          -1.32308        -3.01192         -1.6313
LJ          -3.32462        -4.94611        0.197533
LJ          -1.51324       -0.945362       0.0788646
LJ          0.787139        -3.18271       -0.982903
LJ         -0.935519         -0.7991        -2.90977
LJ          -3.01275         -1.4237        -0.53742
LJ         -0.171936        -2.27072       -0.144664
LJ          0.407282        -1.59054        -1.31082
LJ           4.54849       -0.719918        0.265659
LJ           1.96027        -1.68453       -0.954821
LJ          0.109227        -3.08772        0.963105
LJ          -3.81939       -0.595153        -2.48836
LJ          -2.05026        0.403209        -1.00792
LJ          -5.23191         1.11017        0.567373
LJ          -4.58383       -0.754007        0.108713
LJ          0.792579        -3.28882        -3.73222
LJ          -1.08364         1.66454       -0.886293
LJ          -1.07369      -0.0914855      -0.0764971
LJ          0.193162        -1.12837        0.784805
LJ           4.88669        -2.02015      -0.0566917
LJ           3.01885        0.822633        -1.51796
LJ          -0.88132        -1.35178       -0.707692
LJ          0.193691       -0.815259       -0.197108
LJ          -3.59133          2.5808        0.494703
LJ          -1.80767         2.23351        -1.78431
LJ          -5.59471         3.96866       -0.384418
LJ          -2.79682       -0.261304       -0.350816
LJ          -1.95655        0.447028         0.19259
LJ          0.177382         3.18858       -0.756956
LJ          -1.48573         2.67291       -0.570012
LJ          0.436353         2.08109        0.134258
LJ          0.725144        0.445008       -0.337344
LJ           0.61417         4.35875        0.219456
LJ          0.410711        0.998907         1.29755
LJ           1.39353          3.1976       -0.337179
LJ          -1.95974        -1.85933        0.692855
LJ          -2.08572        -1.73756         1.75127
LJ          -2.51863       -0.209992         3.37972
LJ          -2.81342        -4.07393         1.11542
LJ           1.13908        -4.51373         3.23043
LJ          -1.46309        -2.96982        0.871745
LJ          0.163305       -0.790738         3.52362
LJ          0.808993        -2.79002         1.74902
LJ          0.796439        -4.78741         1.65487
LJ           2.80557        -1.93797       -0.349544
LJ           1.71952        -2.75529        0.956702
LJ           1.71524        -3.93743         1.75285
LJ          -3.14309        -2.22513        0.417346
LJ          -4.00462        0.495211       0.0842823
LJ          -1.71937         1.19265         1.25743
LJ          -2.59904       -0.759162        0.871559
LJ          -2.87375        0.266786        0.734129
LJ          -0.62343       -0.814798         2.18377
LJ          -1.92006       -0.942995         2.73753
LJ           1.85497        -1.15432         4.70174
LJ          0.958015        -1.87294        0.238665
LJ            2.7886         1.45916       -0.733029
LJ           2.25571         1.85453         2.31687
LJ            1.6453        -0.26071      0.00088313
LJ          -2.99731         1.35246        0.355511
LJ          -2.24151         2.17753        0.729357
LJ           -1.7394       0.0488099         3.90371
LJ           -1.4622         1.49095       0.0128657
LJ         -0.204661        0.274796        0.875765
LJ          0.603279         3.06483        0.625259
LJ         -0.362586         1.65312         3.13434
LJ          -0.54058        0.289276         3.14535
LJ            2.3267          1.4857        0.920078
LJ           2.86107        0.612484         1.53035
LJ          0.886289        0.484192         4.01318
LJ            3.2296        0.726164         3.08236
