108
#Comment!
LJ           1.75536        0.103761        -3.21981
LJ           4.89732        -1.18129        0.185726
LJ           1.69208        -1.16355         1.48786
LJ           5.10517          4.3062         2.24087
LJ          -2.42162        -3.98168         4.57047
LJ           3.15662          6.1149        0.768105
LJ          -1.68469        -1.13906         5.10958
LJ           5.20572        -1.84232        -3.13763
LJ          0.857078        -5.78111        0.993341
LJ          -4.72299        -0.20464        -5.55696
LJ          -5.60095       -0.859661        -5.94231
LJ          -4.02377        0.646696        -1.50745
LJ          0.572461         3.19134        -2.05965
LJ          -5.53205          1.9827         1.14619
LJ           -2.0194        0.580958        -5.60777
LJ         -0.505399        -4.68805        0.561274
LJ           1.45489        -5.31563         5.90461
LJ          -1.46144          1.4338         -4.1407
LJ          -4.30651        -2.23773         4.72783
LJ           -3.2237       0.0800298        -4.71767
LJ          -2.11285      -0.0511271         2.66095
LJ           4.30973         6.32259         1.45595
LJ           -5.3657        0.670252        -3.86828
LJ           1.28874        -5.50762         3.72725
LJ          -1.84772        -4.48686         1.74756
LJ           5.28832        -4.35149        -3.98284
LJ          -5.10435         3.44125        -2.88008
LJ          -6.08251        -2.26598        -3.92961
LJ           1.34911        -3.88819        0.183572
LJ           1.72684       -0.355567         5.93673
LJ           2.12283         3.69187        -3.34935
LJ           4.64544        -5.67916        -0.84326
LJ           6.02798        -2.44805         4.39102
LJ           3.60969        -1.59949       -0.541002
LJ           4.59105         5.27399        0.686006
LJ          0.161648       -0.769571         6.22879
LJ         -0.458664         5.79426         3.76162
LJ          -4.69131       0.0309903         2.31117
LJ          -3.48687        -1.46033         6.35712
LJ           6.17697         4.71679       -0.412549
LJ           1.23296        -4.30851        -4.68404
LJ          -3.21281        -6.45125         5.23927
LJ        -0.0383687        -4.71721         -4.0378
LJ          -5.28911         0.49939         1.38639
LJ          -4.42239        -5.17879        -4.59917
LJ           5.21081         2.87603        0.919992
LJ          -5.84401        -2.68118        0.791519
LJ          -2.01679         1.46956         6.29375
LJ         0.0205801        0.121053         4.89333
LJ            6.0392         -2.7643        -3.32385
LJ         -0.241041        -4.18485       -0.735652
LJ          -1.48474        -4.46181        -1.82428
LJ         -0.894356        0.843346        -1.76222
LJ           3.25221         5.97435        -1.06124
LJ           4.08736        -5.58111        -3.41049
LJ           5.83387         4.51756         5.12918
LJ          0.862575         3.79295        -4.66534
LJ          -3.49873         5.94556        -1.06448
LJ          0.867725        -2.51457        0.941395
LJ           5.80067         3.50969         -0.7661
LJ           1.30942       0.0144079         3.52109
LJ          -3.36144          4.3845         4.69738
LJ          -6.04754         4.80806         5.57599
LJ           3.60412         5.93459         2.48404
LJ          -6.38524         -4.2309         3.57652
LJ           3.53858        -4.73489        -3.73377
LJ           4.46135         -1.6433        -2.36769
LJ          0.638297         1.78933        -1.25234
LJ            5.6015        -1.28829        -2.30165
LJ         -0.481243         4.33076         4.21923
LJ          -3.58421       -0.238077         1.64872
LJ          -5.48414       -0.770251         5.35445
LJ          -6.43587        -1.48954        -0.30064
LJ           1.16312        -5.32362         -5.7275
LJ          -2.84471       -0.938429        -3.56548
LJ           2.88262         2.24487         -4.3965
LJ          -5.24065        -4.56574        -1.96427
LJ         -0.533169        -1.41475         5.14714
LJ          -3.03605        -6.18416         -4.8831
LJ         -0.517029        -3.14831        -5.79329
LJ          -1.35634        -2.06461        -2.30905
LJ           6.31095       -0.362845        -2.63149
LJ           3.19548         2.82536        -3.29408
LJ          -3.57722       -0.295431         4.09842
LJ          -2.22482         3.84933         4.91964
LJ          -3.77762       -0.486043       -0.919461
LJ          -2.93962        -1.02883         1.92909
LJ           5.45766        0.329483         3.87543
LJ           3.83829       -0.147586        -1.16141
LJ          -0.26713         3.72651        -2.64757
LJ          -4.63209         3.03461         5.12902
LJ           4.95833       -0.401812        -2.80231
LJ          0.427955         4.93875         5.65563
LJ           2.49459         1.96078         3.38096
LJ          -2.86885        -5.79809        -6.14076
LJ           5.25825        -0.60862        -1.41198
LJ          -1.44042        -0.38561          3.9188
LJ         -0.264381        -2.49259      -0.0143391
LJ         -0.124576         6.00637         5.20862
LJ           3.04863         3.55454       -0.574224
LJ          -3.25246        0.864282         2.68476
LJ           4.29584       -0.151078        0.817512
LJ           4.24254         1.29735        -1.54706
LJ          -3.36003       -0.641019        0.580449
LJ          -5.49555         4.28389       0.0905959
LJ           3.95137         2.09054         3.61696
LJ          0.821688         -5.5969        -1.39555
LJ          -6.03969        0.942916        -4.71185
