108
#Comment!
LJ          -4.84933        -2.92937       -0.152854
LJ           4.38104         5.18006        -2.77124
LJ           1.36548         5.47032        -1.11091
LJ          -6.31057        -1.29572        -3.90971
LJ            3.6883         2.93309        -4.45885
LJ           5.46668        -1.36147        -3.25404
LJ          0.401943         3.14331        0.875284
LJ          -5.71727       -0.813056         4.05302
LJ          0.683106         2.86839         4.97114
LJ          -5.19321        0.573065         2.17305
LJ          -2.30898        -2.86942         2.65906
LJ           5.93566         -3.2304         3.07469
LJ           3.01697       -0.845637         -5.7523
LJ          0.671752         6.17688         5.67328
LJ          -3.46277         1.96558        -5.28633
LJ           4.54873       -0.863646        -3.55235
LJ          -3.93817         3.04246         5.96774
LJ           -6.2055        -2.47217          5.9686
LJ          -4.26188        0.918687         2.49751
LJ           6.16339        -2.10205        -4.01747
LJ          0.991109         -1.6416         -3.8921
LJ           2.09552        -1.24578        -2.27988
LJ           3.17975         2.24104          6.2866
LJ           1.28272       -0.668852         3.95183
LJ           4.16636         2.44359         -6.3836
LJ          -4.61987         0.32713         1.46872
LJ           5.02595         2.28506        -1.46625
LJ          -4.35533         2.75984         2.24444
LJ           3.49377        -6.13633         4.55785
LJ           4.60237         2.15959         1.37769
LJ          -1.29689       -0.380887         3.77019
LJ           5.63075         4.77197         2.40994
LJ          -6.44466        -3.10977         1.55381
LJ         -0.350933        -3.18754         0.49566
LJ          -1.59423         1.64586        -1.82363
LJ           2.11967        -4.24108        -3.22281
LJ           1.87034        -4.44966         -5.8132
LJ          -2.88687        -2.35503        -3.62618
LJ          -4.13154        -1.73226        -1.02989
LJ          -5.02674        -3.36461        -5.21285
LJ           0.83456         3.55495         5.89082
LJ            1.6889         5.36605         3.99471
LJ          -6.27067       -0.928229         3.38036
LJ          -1.22744         4.73096        -2.94295
LJ          -2.51725        0.591519         2.91295
LJ          -2.61171         4.26338        0.624594
LJ          -5.41928         3.67806         4.03673
LJ           2.79317         -6.3112         3.70963
LJ           5.64804         5.76754         -4.0517
LJ           3.01529         3.86855         5.56236
LJ        0.00513868         4.06754        -5.61317
LJ            3.0229         1.62061        -2.63366
LJ           2.39132        -3.85718       -0.717854
LJ         0.0345979        -6.14104         5.14915
LJ         -0.127152        -6.22773        -4.78774
LJ          -2.66153        -6.20679        -3.70362
LJ           3.88859        -4.10732         5.27647
LJ           2.17681         6.44343        -1.50831
LJ           3.24401        -6.18722         1.78754
LJ          -2.81436        -4.27926        -4.00743
LJ            3.8907         -3.0452       -0.463633
LJ           6.01751        -3.95132         2.30238
LJ           3.40382         6.20487         1.86452
LJ           4.06671        -4.35977        -5.17517
LJ         -0.910872        0.131134        -4.55061
LJ           -5.7959        -1.20469         4.09331
LJ            4.9044         2.59549        0.701348
LJ          -3.43275        -4.56688       -0.988275
LJ           2.31484           3.003         5.72758
LJ          -2.83271        -3.16359        -5.82338
LJ           3.38149        0.948713       -0.555296
LJ           2.55964         5.62713        -2.74032
LJ          -5.87908        -5.72017         1.36126
LJ           3.46242        0.762294       -0.304874
LJ          0.280364          1.5116        -0.24702
LJ          0.763115         6.33883        -1.61139
LJ          -5.51141         1.01668        -1.81995
LJ         -0.457014         -1.2726         5.78495
LJ           5.32501         4.83712        -2.08326
LJ           4.33726         4.90367        -6.07437
LJ           5.09643        -5.75333          6.0076
LJ          -1.20659        -5.99843         1.94034
LJ           4.88381         1.83813       -0.642439
LJ            -1.887         5.57975         4.71579
LJ          -6.09448         3.63855        -3.14955
LJ         -0.811967         3.32078        -1.80436
LJ          -4.51671        -3.00023          4.8407
LJ          -4.14383          3.9889        0.683247
LJ           2.99798        -1.60664        -4.27747
LJ           6.34688        0.239185         5.19133
LJ           5.19328         -6.0065         5.36512
LJ          -1.51334         6.00629        -3.00983
LJ           1.70001        -2.03169           1.705
LJ           1.75733        -2.00417        -3.62938
LJ          -2.47993         1.56764        0.866466
LJ          -4.55739        -1.41194        -3.23543
LJ        -0.0725689        0.978231         3.64825
LJ           3.31554         2.48263        -3.30373
LJ           5.53432         6.16992         2.53305
LJ          -4.70324         5.25974         6.05733
LJ           2.89803         6.03837         2.33204
LJ           3.12939        -1.06305        0.057093
LJ           3.92145         1.94349       -0.657378
LJ           4.45257         5.37494        -5.69221
LJ           1.81073        -3.03174         6.30018
LJ           4.08932        -4.48421         3.06345
LJ           5.63227        -6.02966        0.686977
LJ            5.3775       -0.815704         1.00493
