108
#Comment!
LJ          0.842099      0.00341122        -3.00362
LJ           4.40486        -1.20191         2.80243
LJ           3.05722       -0.231043        0.946545
LJ           4.83918         2.89257        0.814112
LJ          -3.70562        -5.17573        -6.16375
LJ            3.6642         4.59897        0.464912
LJ          -2.58535       -0.857091         4.04394
LJ           4.50144          -1.969        -4.13343
LJ          -1.69651         3.81295         1.81338
LJ          -3.59998        0.225056        -6.12012
LJ          -3.34723        -0.43943        -5.09252
LJ          -3.57182         2.77785       0.0485761
LJ          0.871439         5.64462       -0.723671
LJ          -4.39366        -1.06867       0.0554869
LJ          -2.23347         1.33095        -5.36414
LJ          -1.35513        -2.85539         2.49828
LJ          -0.12586        -4.15818         6.10493
LJ         -0.954835         4.23122        -4.88833
LJ          -2.92672        -2.83236         6.37284
LJ          -3.82832         3.54141        -5.59803
LJ           -2.2438         1.42273         1.88988
LJ           3.85057         5.64007         1.54592
LJ          -6.45189         1.00452          -5.366
LJ           1.11656        -4.57745         3.16384
LJ          -2.52518        -2.74484        0.332324
LJ           5.84696        -6.17783        -1.97926
LJ          -5.47571          5.3475        -1.51209
LJ          -5.54358        -1.02015        -4.67829
LJ          0.907389        -6.36174        0.957592
LJ           1.62556       -0.132425         4.15104
LJ           1.65267         3.95924        -3.89781
LJ           3.70276         6.43425         0.13662
LJ           5.64192        -1.39875         4.43611
LJ           3.31679        -2.78551        -1.48416
LJ           5.54258         5.24476         1.51891
LJ         -0.755367        -1.23335        -5.75528
LJ          -3.43596         6.23557         4.92839
LJ          -4.40291       -0.342559         1.60638
LJ          -1.56297       -0.935548         5.83008
LJ           -5.8933         4.43609        -0.29603
LJ           4.44676        -2.93519        -2.64605
LJ         -0.115175        -4.97905         4.13632
LJ           0.78528         -3.2993        -1.51587
LJ          -3.77933        0.298417         2.46091
LJ            5.8225          4.7563         6.39409
LJ           5.32981        0.863252       -0.242833
LJ          -5.13922        -3.21739        -1.51426
LJ          -2.97066       -0.102313         5.91972
LJ           1.98145        -1.21361         5.31803
LJ           5.43069       -0.146045        -1.43378
LJ          -1.59294        -3.78203       -0.237012
LJ          -2.19125        -5.42598        -3.56894
LJ          -2.74524         4.15171        -2.35406
LJ           3.31587         4.89799       -0.563696
LJ           2.61151         5.90609        -2.29871
LJ          -4.34079         4.98089         5.56222
LJ           3.40291         3.24236        -4.03465
LJ          -4.50876         5.24283        -1.81446
LJ            2.0327        -4.11975        -0.48766
LJ          -5.06452         6.10752        -0.85795
LJ         -0.957112        0.395252         5.54529
LJ          -2.94226         3.86779         2.74401
LJ          -5.05491         6.12088         5.69472
LJ           4.00746        -6.20981         1.08297
LJ           6.00305        -5.91041         2.50193
LJ           3.19864        -5.82278        -2.16516
LJ           3.28556         -1.4358        -1.51631
LJ           1.29688         2.64222        -3.54717
LJ           5.43631        -1.90946         -2.5147
LJ           1.35653         3.77625         3.11755
LJ          -1.67675        0.706454         1.22979
LJ          -4.26303        -1.28125         3.05698
LJ          -6.42294        -3.15502        -1.82166
LJ          -1.26541        -3.72408        -6.14237
LJ           -4.1868        -2.44381        -3.84927
LJ           2.33596       -0.896441        -1.64733
LJ            5.2717         4.12471        -5.40633
LJ          -1.79983        -1.48824         4.65397
LJ          -5.16642        -6.43996        -4.26727
LJ          -2.14528        -4.25341        -5.01657
LJ          0.329579       -0.726188        -4.03391
LJ            4.6708        -0.99545        -3.36707
LJ           3.24416        -0.25878        -1.50897
LJ          -2.43854       -0.874086          5.2577
LJ         0.0468645         4.58142         6.17699
LJ          -3.45328       -0.375311       -0.220629
LJ          -1.80536        0.524208         2.31136
LJ          -5.72471         2.95955         5.78123
LJ           4.43042       -0.834555        -1.64422
LJ           1.44968         5.06343        -1.76797
LJ          -5.00116         3.89234         4.34488
LJ           6.03086        0.115051        -2.76601
LJ          -3.43548         4.97434        -5.31742
LJ           2.03976         1.68068         1.52256
LJ          -3.79455        -5.80737          -4.374
LJ           4.98697        -2.24795        -1.54067
LJ          -1.71639        -1.74217         3.44555
LJ         -0.462768        -4.36158         3.01003
LJ         -0.399631        -5.19895        -5.92967
LJ           6.35176         4.89812        -1.31469
LJ          -2.88616        0.714364          1.5091
LJ           2.93154        0.399871      0.00459853
LJ           3.99783         1.13425        -3.26844
LJ          -1.69183       0.0974333         0.31489
LJ          -5.89819         3.18117         1.23997
LJ           4.49455         3.10301         2.07385
LJ          -1.67638        -4.02493        -1.46755
LJ          -5.80221         1.34341        -6.22183
