108
#Comment!
LJ           4.64752        -4.72898         5.46514
LJ           1.58385        -1.19973          -3.879
LJ          -2.68418         5.54341        -4.22366
LJ          0.732309        -3.06539         3.83936
LJ          -1.94689        -1.28438        -4.85053
LJ           3.52011         4.48905        -2.34697
LJ           5.78209         4.04234        -3.54865
LJ          -1.34575         3.73362         2.01965
LJ           3.71788         2.16962         -4.7342
LJ          -4.57559         4.04609        -4.17582
LJ           1.71707         2.17739         1.37266
LJ           1.15315         5.99834        0.575453
LJ          0.497605         2.73985        -1.35142
LJ           5.70822         5.55276       -0.201898
LJ         -0.831852        -1.03241        -2.50622
LJ          -1.51001         1.39327        -6.35399
LJ           5.17821         1.85595        -2.15033
LJ          -6.42341         5.42259         3.10926
LJ           4.46362        -4.38439        -5.87916
LJ           -3.4752        -1.11473         3.56316
LJ          0.813538        -1.49725         4.97681
LJ          -1.43819        -5.72776        -5.17215
LJ           3.13577          1.4168        -5.58467
LJ          -4.15802         1.48643         2.14204
LJ          -5.98857        -2.53002         5.59988
LJ          -1.79562        0.436775        -5.06126
LJ            1.5363         4.64176       -0.115423
LJ           5.53149        -3.40978       -0.283434
LJ           5.18829        -3.49698        -4.43046
LJ            5.9133        -4.58251        -3.25006
LJ          -2.40679         1.42862       -0.150153
LJ          -2.00234        -2.66456        -3.77731
LJ          -5.79574        -4.74026        0.162991
LJ          0.514428       -0.849205         5.62578
LJ           6.23647        -4.51472          5.5137
LJ           2.04045        -5.00416        -1.73995
LJ           2.04685         3.36857         5.84982
LJ          -3.49799        -2.29984         6.24696
LJ           1.20465         2.80867         6.30851
LJ         -0.132584           3.025        -4.59525
LJ          -2.51959        -4.40334          1.0842
LJ           -3.2249         1.45338         6.29368
LJ          -2.55394        -2.33817        -6.22191
LJ          -4.63646         4.90221        0.788794
LJ            1.2176         6.07008       -0.360269
LJ          -3.14572        -2.19821        -4.83695
LJ           5.94477         3.68098         4.67257
LJ           3.20377          5.7855        0.753935
LJ           5.60221         3.45235        -3.73723
LJ          -2.77117         4.67118        -4.76835
LJ         -0.674273        -4.28705        -1.14303
LJ          -3.07215         3.03261        -4.30836
LJ          -3.31277        -1.98702        -3.39311
LJ           6.18475          6.4031          1.5167
LJ           1.31159        -1.74756        -6.14684
LJ            -4.465        0.959112       -0.156445
LJ           5.85364        -1.14661         -5.2736
LJ           5.12807        -2.87784       -0.169401
LJ          -1.22024          5.4268        -3.99654
LJ          -3.79283         2.05842        -4.62919
LJ           6.21021        0.877104       0.0364715
LJ         -0.202163        -5.85396         1.60754
LJ           3.14979         6.21299        -2.87626
LJ        -0.0564488       -0.234263         1.12836
LJ          -6.13867        -4.02305         6.09505
LJ          -5.51724        0.155066         5.71116
LJ          -5.74987         -1.0117        -6.30204
LJ           1.37475         6.17488        -3.68576
LJ          -4.64051          1.8517        -2.68032
LJ           2.02902         2.43315        -1.98985
LJ           2.75582          4.1463        -5.79748
LJ          -1.83136        -2.00697         -3.1217
LJ           2.93607        -1.05244         4.76579
LJ           5.63971        -2.91722        -1.93108
LJ           1.24098        0.453759         6.32752
LJ          0.128377         4.47453         1.53201
LJ           4.14182        -5.24363        -6.21206
LJ           3.77084        -4.37783         -3.4032
LJ           5.08758         6.17134         6.27201
LJ          -4.19269         6.40609         3.51204
LJ         -0.543865         5.63351        -2.67616
LJ          -1.55736         3.07271         3.92238
LJ           1.78421         4.92948         3.37142
LJ           4.75582         3.75463        -5.18844
LJ          0.127741        -5.27256        -4.17625
LJ           1.94868       -0.745381         3.14894
LJ           4.14858      -0.0511637        -6.02524
LJ         0.0452021        -4.26193         6.32957
LJ          -4.45321        -2.12195         5.58405
LJ           3.41501        -1.87851         4.58312
LJ         -0.942045        0.472882        -2.80576
LJ          -4.35962        -3.99346         2.04813
LJ           1.47608        -3.72058         6.34837
LJ          -2.30765         1.04413        -4.68667
LJ          -2.89811         2.19593        0.502628
LJ           1.55061        -2.15276         5.54358
LJ           5.52353         4.69953         1.86633
LJ           2.29152         4.35984         5.87147
LJ          -4.95281        -1.52781        -3.99972
LJ          -4.99271         2.58961        -2.69939
LJ          -4.99063         4.72326         1.36203
LJ           3.85357          4.6836       -0.892319
LJ             2.419        -3.21772         2.11203
LJ          -3.66407          1.5602         1.47038
LJ          -3.96359         2.32252        -5.35016
LJ           1.03157         0.56096         1.77684
LJ          -6.11081         4.97229        0.426971
LJ          0.637678         6.15077         4.42906
