108
#Comment!
LJ           0.33644          2.6924       0.0454901
LJ            3.9787        -1.44182         0.12109
LJ           4.08767         2.23061        -6.08687
LJ           5.78053        -5.40394          3.1435
LJ          -6.27637        -5.23747         5.22248
LJ           6.24948         4.50566        -4.34719
LJ          -2.70882         -3.6501        -3.88967
LJ           2.64985        0.639295         4.55179
LJ          -2.20472        -2.41715        -6.25712
LJ           -2.2933        -3.88407         5.24382
LJ           2.66475        -0.30011        -1.73218
LJ           3.72628         -2.9388         5.39194
LJ           0.34502         4.56132         6.43183
LJ           4.74092         2.15132        0.695098
LJ          -2.69064         1.71305         1.93046
LJ            1.8778         2.03235         2.39145
LJ            2.8453         1.41948         1.93483
LJ           -4.0979        -2.76689        0.845976
LJ           2.02379         4.09294        -2.51716
LJ           1.67831         1.80208         3.45707
LJ           4.93791         -5.0927         -1.6308
LJ         0.0383798      -0.0370464        -0.70691
LJ          -4.34318        -6.16364        -3.76701
LJ          0.560419        -4.44182        -5.59527
LJ          -4.74389        -4.60934        -5.90191
LJ           -1.5307        -3.21011         -5.9607
LJ          -3.53034         2.95885       -0.988121
LJ            -5.349         5.26622         3.49238
LJ          0.104181        -2.48026         2.27303
LJ           2.45284         1.18503        -4.72757
LJ          -5.66319         2.88591        -1.63715
LJ          -2.66393         4.49031         -3.3887
LJ          -2.31107        -5.58291         3.56702
LJ           1.86693         -5.4575         2.95256
LJ        -0.0124656         3.67706       0.0362465
LJ         -0.245702       -0.377309         3.60873
LJ           2.60157        -2.92282         5.95132
LJ           1.13929         5.39474        -2.86033
LJ         -0.388596        -4.47384         4.15364
LJ           1.49946        0.286485         5.55281
LJ          0.484375        0.260889        -4.70208
LJ          -3.26145        -4.39962        0.353131
LJ          -4.30168        -5.74719        -2.66741
LJ          -1.36369        -5.43706        -3.79244
LJ          -3.22635           5.868         1.31577
LJ          -1.43316       -0.941282        -3.98388
LJ            1.6956         5.16354        -5.60757
LJ           6.06663          -3.814        -3.94609
LJ           5.58154         4.98059        0.442155
LJ          0.459188         6.36107        -2.00047
LJ         0.0268256        -4.91992         6.08227
LJ           4.80762        -5.60587         2.66304
LJ          -4.49679        -6.22817        -6.10404
LJ          0.136665         0.36164         1.92889
LJ           -3.4304         1.83585        -2.62164
LJ           -1.6487        -1.84632         -6.3165
LJ           -5.0684         6.05099        -6.42274
LJ           6.09958         3.80213         -4.0411
LJ          0.419765         1.32678           6.104
LJ          0.460724        -3.45064           3.273
LJ           1.57212        -3.53816        0.801145
LJ          -5.19223         4.19609        -4.77571
LJ         -0.773687        -1.65439       -0.675531
LJ           3.50464        -6.23515         1.88489
LJ         -0.266942        0.668199        -1.70697
LJ           -3.7214         3.07335         5.85639
LJ          -4.25163        -5.21361     -0.00735849
LJ            6.1571         -3.9762        0.832092
LJ            5.2814         4.92348         -2.7952
LJ           4.33064        -4.48946         1.45375
LJ          -1.61108        -2.78127        -3.39442
LJ           3.08879         2.09832        -2.42767
LJ          -5.80071       -0.108878         2.70355
LJ          -2.33135         4.48683         4.33759
LJ          -1.61448        -5.02266         4.73042
LJ           2.83416         5.53155        -5.51712
LJ          -1.39024        -1.47784        -2.86926
LJ          0.540706         -4.1374        -1.46186
LJ           5.70168         2.64129        -5.46139
LJ           3.30827        0.490526        -4.09134
LJ          -4.13554        -2.12947        -2.71967
LJ           3.52281        0.198291        -3.80469
LJ          0.799743         2.42596        -1.39597
LJ            4.2426         1.31891        -2.94091
LJ           1.23282        -3.16821          1.4879
LJ         -0.130492        0.260823         4.58856
LJ         -0.349914        -2.08002       -0.963655
LJ          -1.66879       0.0945373        -2.44097
LJ           3.16569        -5.90621        -3.78386
LJ         -0.117788       -0.951237       -0.639607
LJ          -3.48008        -2.64313        -4.39945
LJ          -3.31347        0.929187       -0.928321
LJ          -5.57701         2.31604          2.5047
LJ           2.77035         4.27556         2.40004
LJ           1.68551         4.33589         3.87654
LJ          -1.74984        -5.71812         5.48792
LJ         -0.873665       -0.830187         4.32089
LJ           1.17743         5.16623         1.85094
LJ           3.86203       -0.814329        -5.25002
LJ           1.82117        -1.58045        -3.53695
LJ           3.95057         5.38761         1.13049
LJ           3.41073        -4.64215        -4.32545
LJ          -4.82006         1.50594        -1.48839
LJ           5.34508         2.48251        -2.95185
LJ          -2.36631         -4.4122        -2.30794
LJ           2.12881         6.21946        -2.36684
LJ           1.23926        0.750678        0.392219
LJ          -5.22382        -5.71746          5.4368
