108
#Comment!
LJ          -3.98311        -3.94828        -3.27331
LJ          -2.22021        -1.75854        -3.21469
LJ          -3.01257        -1.96166        -2.54952
LJ         -0.817433        -4.48809        -1.19214
LJ         -0.300892        -3.37357        -3.05555
LJ           1.21381        -2.68258        -4.42186
LJ          -1.46352        -1.83862        -1.27424
LJ         -0.192339         -2.1636        -2.21703
LJ           3.07216         -2.9782        -3.87054
LJ           1.06051        -2.35837        -2.47431
LJ          0.988477         -4.0244        -3.50338
LJ           1.54158        -3.33744        -1.47002
LJ          -3.78953        -1.09949        -1.55166
LJ          -1.89621        0.079274        -3.48099
LJ          -2.52107          1.1669        -1.67938
LJ          -2.82448        -2.49911        -1.18932
LJ         0.0919531       -0.502472        -2.49375
LJ         -0.252188        -1.11398        -3.68309
LJ         -0.657452       -0.137848        -1.71183
LJ          0.837342       -0.862403        -1.72364
LJ           1.33785        -1.19744        -3.03057
LJ           1.17743        0.345966        -2.52959
LJ           1.84007       -0.106224         -1.2225
LJ           3.64562       -0.713965        -1.32002
LJ          -3.82478        0.741362        -4.07704
LJ          -3.80044          1.8871        -3.23641
LJ           -3.3005        0.965877        -2.75139
LJ          -1.37575        0.862685        -2.70135
LJ            -2.591         1.35772        -4.58057
LJ           -1.4496         1.86988        -3.85828
LJ          -2.06691         2.17441        -3.02117
LJ         -0.320126         1.05617         -2.5455
LJ          0.259764        0.151738        -1.67803
LJ          0.800123         1.63618        -3.34535
LJ        -0.0557766         2.37956         -2.1286
LJ           2.20095         1.53811        -2.15243
LJ          -2.18648        -4.37215        0.199146
LJ          -1.60392        -3.11639         -1.4175
LJ          -3.47551        -4.29691       0.0842683
LJ           -1.6582        -1.61237        0.170309
LJ          0.213215        -3.03283        -1.00115
LJ         -0.673733        -1.25494        -2.07985
LJ          -2.36013        -1.38326       -0.830554
LJ         0.0285591        -2.43223     0.000442789
LJ          0.559168        -2.03554        -1.31317
LJ           4.05508        -1.06747      -0.0948291
LJ           1.64182        -1.88813         -0.6698
LJ           0.56525        -3.06527        0.708467
LJ          -3.59219       -0.116909        -2.30503
LJ          -1.85978        0.455537        -1.11598
LJ          -4.90738        0.797419         0.32161
LJ          -3.83854       -0.946112       -0.527786
LJ          0.594964        -2.56008         -3.5078
LJ          -1.00471        0.970775        -1.06608
LJ         -0.568083       -0.347273        0.148098
LJ         0.0742517        -1.17246        0.498189
LJ           3.60784        -1.85722       -0.680141
LJ           2.63053         0.69933        -1.61095
LJ         -0.507325         -1.0442       -0.808958
LJ           0.69749       -0.964117       -0.600291
LJ          -3.34553         2.02681       -0.021469
LJ          -1.43904           1.926        -1.63489
LJ          -5.00455         3.44862       -0.367452
LJ          -2.75419       -0.414288       -0.185201
LJ           -1.4899        0.341346      -0.0543062
LJ        -0.0429731         2.68416        -1.05622
LJ          -1.76361         1.75603       -0.298205
LJ          0.269702         2.02364       -0.139278
LJ          0.877698        0.779733        -0.79053
LJ          0.946269         3.68665       -0.200362
LJ          0.518811         1.26464        0.975994
LJ           1.75067         2.57573       -0.256149
LJ          -2.27296        -2.40961        0.746924
LJ          -2.14503        -1.82809           1.809
LJ          -2.75129        -0.71784         3.05719
LJ          -2.58211        -4.00209          1.3631
LJ          0.621924        -4.18884         2.53409
LJ          -1.09363        -2.80354        0.870998
LJ         -0.016528       -0.442506           3.105
LJ          0.783754        -2.87846         1.99564
LJ          0.764652        -4.17571         1.31842
LJ           2.57309        -2.09902         0.18106
LJ           1.68845        -2.63652         1.19899
LJ           1.69113        -3.77572         1.85485
LJ          -3.00936        -1.30391        0.353411
LJ          -3.63039        0.264137        0.308543
LJ          -2.04726         1.02069         1.60997
LJ           -2.4699       -0.764926         1.35427
LJ          -2.44654        0.388675        0.652925
LJ         -0.662752       -0.666585          1.8342
LJ           -1.5658        -0.68574         2.38869
LJ           1.38784        -1.17875         4.11523
LJ          0.985038        -1.96197         0.46833
LJ           2.57414         1.26203        -0.32768
LJ           1.98959         1.43038         2.36506
LJ           1.81617       -0.448875        0.597267
LJ          -2.53844          1.3677        0.169565
LJ          -2.16093         2.39558        0.908036
LJ          -1.73742        0.551645         3.41216
LJ          -1.59355         1.48069        0.704626
LJ         -0.295376        0.292906         1.13023
LJ          0.357544         2.90571        0.842772
LJ         -0.506767         1.84719         2.95202
LJ         -0.703833          0.3579         3.18633
LJ           1.94636         1.51943        0.969788
LJ           2.91707        0.975842         1.40727
LJ            0.5992        0.447072         3.14262
LJ           3.05686        0.768492         2.98582
