108
#Comment!
LJ          -5.02317        -4.41746        -3.27946
LJ           1.73998         1.58888         4.39529
LJ           1.43847         3.07637       -0.439596
LJ           4.13728         3.67515         5.02397
LJ          -5.08864         4.15636         1.26193
LJ           2.67588         3.47669        -6.26318
LJ          -4.77426         2.26679        -2.56692
LJ          -3.24208        -3.34552         2.76177
LJ           3.25404       -0.722155          1.5731
LJ         -0.731679         3.92262         3.90338
LJ         -0.248652        -5.00286        -5.36115
LJ           1.11466       0.0300279        -5.92842
LJ           3.42101        -4.83925         2.19663
LJ            3.3352         1.66347         2.71781
LJ          -3.61925         1.48778        -2.09726
LJ           2.06567        -3.75465       -0.933555
LJ          -4.18706        -1.72597         1.79801
LJ           4.67732        -5.63334        -2.37952
LJ          -6.31834        -5.31193         5.38547
LJ          -0.29763         4.71631        -1.81861
LJ          -4.74155          2.9386        -1.87858
LJ         -0.279316        -1.62169        0.556772
LJ          -1.60504         5.20648       -0.233525
LJ          -6.14983        -2.59317       0.0122904
LJ            2.3987       -0.634543          1.2148
LJ           4.81274         2.14938        -4.38924
LJ           4.02027        -3.79334         4.41756
LJ          -5.87999        -1.78123        -2.22535
LJ          -2.06634         3.57138         6.27551
LJ           1.13866        0.179073         4.03491
LJ         -0.981469        -2.02574         4.91656
LJ          -6.09565         -2.5965         1.13927
LJ          -5.72678        -3.64837         4.68327
LJ          -3.22885          3.3478         3.65622
LJ           3.83711         1.23638        -2.30656
LJ           5.88588        0.827361        -4.06171
LJ           2.24196        -3.88201         -4.4946
LJ           3.82433         1.16029         4.97059
LJ           4.95088         3.79276        -1.70088
LJ          -3.22283        -4.12118         5.63224
LJ          -5.02488         2.20701        0.972485
LJ          -5.06285        -5.72224       -0.201267
LJ         -0.533737       -0.578816        -3.35038
LJ          -1.36224         6.37919         1.31257
LJ          0.628606         4.16004        -2.68267
LJ         -0.171699        -1.91083        -1.29444
LJ          -4.36166        -1.02013         1.18729
LJ          -3.10192        0.487126         4.15345
LJ          -3.51372         -1.9747         6.25429
LJ         0.0488927         2.11011        -3.76841
LJ          -2.78169         5.82816        -5.71008
LJ           3.36641        -3.62276        0.834149
LJ           6.23149         5.16802         1.68645
LJ           5.10627        -1.74119        -3.60882
LJ           2.88986         5.75838         5.80459
LJ          -4.51796        -3.90032        -3.19154
LJ          -1.83126         5.05307         6.04114
LJ            -3.521         3.23749         3.37023
LJ           5.11384        -1.09479        -5.66394
LJ          0.999049        0.163053        -1.04197
LJ            5.1447        -1.05416       -0.123424
LJ           3.25018         1.77113        -3.27637
LJ          -4.68227        -1.71037         1.25452
LJ          -2.69062      -0.0479211        -2.79604
LJ          -3.93492        -6.33807        -3.93276
LJ          -2.24188        -4.18619         5.16877
LJ          -2.67842          4.3265         0.69094
LJ             2.377         2.44456        -4.67906
LJ           1.56242         1.83572       -0.813739
LJ          -4.76243          4.6843         5.71695
LJ           5.22655        -1.90133         -6.1804
LJ          -4.60103        -4.47379         -5.4899
LJ          -3.70512        -5.42684        -1.78142
LJ          -2.86891        -1.60851         1.00061
LJ           1.57742         3.83281        -3.37337
LJ           1.19838        0.359976         4.52429
LJ          -3.37962        -3.73845         3.93891
LJ          -3.83903       -0.733373        0.565707
LJ          0.772461        -4.22702        -5.71443
LJ          -1.87146         3.30181         3.75448
LJ          -4.17736         3.53084         4.03613
LJ          0.878914         2.32128        -4.01467
LJ           6.20316        -3.22446       -0.117572
LJ          -1.47856        -2.72889        -2.10397
LJ           6.42935         1.33618         5.04799
LJ          -1.27138         1.84821        -2.79026
LJ          -6.41658       -0.994181         1.30223
LJ           4.11511         1.17091       -0.231186
LJ           3.90074          2.3482        0.131865
LJ           4.87427         5.31607         4.53113
LJ          -6.17376         3.37145        -3.30533
LJ          -1.19446        -2.39054        -4.55091
LJ           2.70077         1.33351        -5.56596
LJ           2.98583         2.25094         5.39797
LJ           1.44483         2.87701        -3.95187
LJ          0.389049         5.38621         5.38208
LJ           3.41843        -1.41661         3.72844
LJ          -2.70537        0.190298         -3.5047
LJ           3.03957         3.19136        -5.75544
LJ          -4.18639          3.3189         3.39931
LJ           -5.9521        0.244646         5.48339
LJ          -2.29631         5.57529          6.3808
LJ          -3.38319         2.93711        -1.15294
LJ           5.19299         2.28318        -4.56032
LJ            5.2578         4.67741        -6.25262
LJ          -4.96177         5.52078        -1.24781
LJ           1.61576       -0.159372       -0.550691
LJ           1.98035      -0.0836482        -1.63005
