108
#Comment!
LJ           0.89227        0.778681        -2.23155
LJ           5.64368       -0.566516         5.79597
LJ           5.08229        0.417587        0.192474
LJ           4.73327         3.74614        -1.28115
LJ          -5.97535         4.76615        -3.72069
LJ           5.00504         2.04325         1.30333
LJ          -2.30999       -0.572111         2.35324
LJ           3.42135        -1.19643        -3.77615
LJ          -3.83511         4.50708         3.20606
LJ          -3.49819        -3.08001        -4.95991
LJ         -0.387569         1.94586        -5.57703
LJ          -3.88581         4.84243       -0.181652
LJ           2.47544        -4.53281       -0.239954
LJ          -1.67851        -4.73088        -2.99022
LJ         -0.791618         3.63013        -4.58021
LJ          -1.72209        -1.08013         4.44947
LJ          -3.36236        -1.30649        -5.25254
LJ         -0.162785        -4.34992        -6.37479
LJ          -2.37841        -1.75086        -4.14962
LJ          -4.83973        -3.45306         4.09147
LJ          -1.85428        -1.91261        -2.87847
LJ           3.44928         6.24515         2.44826
LJ           5.66511         1.72908         4.07174
LJ          -0.20002        -5.18174         2.06091
LJ           -5.2404        0.749539        0.935031
LJ          -5.60865        -5.13149         1.69538
LJ           6.44957        -4.01478         1.44092
LJ          -4.15734        0.738588         6.06709
LJ          0.371956         2.81925         1.68914
LJ          0.424983        -1.01182          2.3001
LJ           1.35142         4.82905        -4.44283
LJ           3.02808        -5.60287         1.96844
LJ           4.82548          2.8235         4.84489
LJ           1.73704        -4.37953        -3.42737
LJ           5.50083         2.93624         2.35638
LJ           1.80561        -1.05537       -0.205048
LJ          -2.91247         -5.8657            5.86
LJ          -1.38732        -1.24693         2.04729
LJ          -1.89724         0.10337         3.72643
LJ          -6.15121         3.94184        -1.77502
LJ           5.37375        -1.51069        -2.08978
LJ           3.46392        -3.79054         5.06234
LJ          -1.95454       0.0720697        -1.27966
LJ          -2.51648         -1.6287         2.84389
LJ           1.32592      -0.0219263         3.26655
LJ          -5.96445         1.06638         2.36385
LJ          -5.99641        -2.75372        -2.72201
LJ          -3.80846        -2.31882        -5.71869
LJ           3.54664        -3.03758         6.11982
LJ             4.349        0.122515         5.28189
LJ          -2.95483         -2.5107         1.64317
LJ            -1.938         4.12813        -3.82089
LJ          -5.39195        -4.61769       -0.355096
LJ            4.0611         3.69608        0.570762
LJ          0.716279         5.07604        -2.17581
LJ           -2.2701        -4.92077         6.19923
LJ          -6.23691         2.81783        -2.28519
LJ          -4.70525         3.31886        -3.41593
LJ           5.92843         6.26566         2.76197
LJ          0.375746        -3.38064       -0.300465
LJ          -3.78206        -1.47507         5.77574
LJ            -2.237         4.93359         3.77471
LJ           6.22896         4.01126        -3.61198
LJ           6.20575         3.67304         0.92974
LJ          -5.99785         5.39259      -0.0303838
LJ           3.45987         6.02265          -3.655
LJ           6.10269         5.47801        0.891919
LJ           2.25868         2.62932         5.69653
LJ           4.13329        -1.53296        -2.43673
LJ           4.11472         3.21835         1.66307
LJ         -0.947177        0.752614         1.47134
LJ         -0.556206       -0.877781         1.11685
LJ          -3.23132        -3.75089        -2.34795
LJ          -3.16798        -3.66968         3.15812
LJ          -5.85239        -5.92533         6.15935
LJ           2.48723       -0.792844        0.467774
LJ           1.82519        -2.41878         1.85384
LJ          -1.35841        -1.99751         2.64858
LJ           5.49379         6.01735         -4.7596
LJ          -3.19971        -3.23335         4.30955
LJ          0.514061       -0.842056         5.22539
LJ           3.71045        -2.51729        -1.76722
LJ            3.1118         0.37303       -0.972472
LJ          -1.66925        -1.11694          3.2598
LJ           3.70314        -6.37045        -5.01132
LJ          -4.51943       -0.295268         1.06696
LJ         -0.741786         1.39648         2.23753
LJ          -2.81926        -4.66572        -4.00408
LJ           3.66666        -3.10236        -2.79578
LJ           1.12882         6.43709         2.99376
LJ           6.46038         5.24621         4.38933
LJ           5.68595       -0.534969        -1.68205
LJ           3.98981         4.92972        -3.42832
LJ           2.06325           1.873         -0.7637
LJ           6.36007         4.52026        -2.79297
LJ           4.56855         -1.7791        -1.29864
LJ          -4.74805       -0.384002         2.85837
LJ          -2.41963          6.0259        -5.27611
LJ          -1.32082        -3.32627        -2.60985
LJ          -5.17509           3.209        -1.17452
LJ          0.278002        0.666163         1.85869
LJ           2.43593       -0.634234        -1.16416
LJ           2.88101        0.289401         -5.4327
LJ         -0.389227         1.72129         1.20762
LJ           5.77643         1.78964         2.24996
LJ           3.18763         2.46801        0.775408
LJ          -4.64668        -1.67086        -2.65372
LJ           6.23411           1.587         5.13606
