108
#Comment!
LJ          0.120664        0.213273        -3.34755
LJ          -6.44948         0.18994        -5.80918
LJ           5.97681       -0.226115        0.167845
LJ           4.26414         4.84109        -4.07138
LJ           4.88826         1.76745        -1.94119
LJ           6.39603         1.63768         1.05276
LJ          -1.15393        -1.44048         1.28641
LJ           2.19631       -0.669486         -3.8398
LJ          -4.13178         6.25634         4.44587
LJ          -2.59281         -4.0821        -4.87957
LJ           1.12053         3.23486        -5.64347
LJ          -4.78766          5.5753        -1.25075
LJ           3.50871        -2.78998        0.109525
LJ         -0.168512        -5.74026        -5.34867
LJ         -0.650576         5.02142        -3.62931
LJ          -3.73368        0.957487         2.91389
LJ          -6.36449        -1.34737        -4.80304
LJ         0.0851907        -1.78524         5.47359
LJ          -2.82437        -1.03775        -2.83798
LJ           5.33016        -1.51591         2.50821
LJ          -1.38013        -3.97954        -5.23978
LJ           2.32324        -5.27368         3.45996
LJ           5.04866         2.94064         3.15967
LJ          -2.02365         5.06844         3.04302
LJ          -5.66819        0.744171          3.0004
LJ          -5.55753        -2.58227         3.74397
LJ           6.30524        -3.38585         3.34774
LJ          -4.00258         2.11949             4.8
LJ           1.58606         2.13776         3.40395
LJ          0.672331        -4.17007        0.424249
LJ          0.934574          5.0162        -4.15911
LJ           3.05952        -4.77771         4.44952
LJ           5.28957         3.51352         5.35811
LJ          0.215968        -5.88039        -4.36337
LJ           5.98145        0.602055         2.80763
LJ             2.382       -0.907604        0.136823
LJ          -2.22348        -5.39533        -6.33092
LJ         -0.306318       -0.919196         1.70974
LJ          -2.40838       -0.775715         1.55456
LJ          -5.61218          2.4088         -0.2143
LJ           3.55577        -1.17454        -1.04849
LJ           5.52921        -3.02775         5.91025
LJ          -4.02533          2.0319        -1.18546
LJ          -1.84731        -2.20109          2.1518
LJ          0.581431        -1.82732         1.91814
LJ          -4.64724         1.87414         3.89676
LJ           5.55087        -1.17156        -2.56401
LJ          -3.23353        -2.55508        -3.61803
LJ           3.86533        -4.24389        -5.73721
LJ           4.55094     -0.00559078         1.20659
LJ          -3.97749        -0.68852         2.21881
LJ         -0.219334         2.60043        -4.84011
LJ           6.05957        -2.50977          2.3116
LJ           4.24213         1.99971        0.288498
LJ          -0.36502         4.54685        -2.32441
LJ          -1.56174        -3.74292         6.27326
LJ          -3.87178         1.31902        -2.60153
LJ          -5.49772          2.3301        -3.81719
LJ          -4.97128        -6.31163         3.34142
LJ            3.7829        -1.23241     0.000754426
LJ           -4.3782        -3.48896         5.42073
LJ          -2.27732         5.28212         5.32671
LJ           5.12009        0.179383        -3.80385
LJ          -5.35709         2.01666        0.626392
LJ          -5.18371         4.07958       -0.278254
LJ           2.91232        -5.36134        -6.43503
LJ          -4.37492         1.34394       -0.132449
LJ           2.81832         2.52827         3.46543
LJ            3.2282        -2.08897         -1.7589
LJ           3.89006         2.75174         2.30624
LJ          -1.39001         0.64107         2.43238
LJ           1.38888       -0.862288       0.0451353
LJ          -2.21947        -3.13752        -1.16542
LJ          -2.09736         -1.7876        0.991461
LJ          -5.76062         5.17844         4.69598
LJ           5.48196         2.74124         1.30108
LJ         -0.238547         -5.8677        -1.99878
LJ           -1.0595        -2.48158         3.03971
LJ           3.22216         6.06159        -5.25913
LJ          -2.17954        -3.47647         2.78457
LJ          0.253668       -0.865441         4.80277
LJ           3.71655        -3.37056        -2.06994
LJ            1.8661       -0.695511       -0.982339
LJ         -0.769678        -1.63603           2.358
LJ           5.43741        -5.38035        -3.77074
LJ          -6.02575         1.31753         1.99069
LJ          0.313588        0.825152         2.67855
LJ          -0.50741       -0.709511        -3.19338
LJ            4.4927        -1.97647        -2.38157
LJ          0.333801        -5.73301         5.75627
LJ           4.38616        -6.35361         4.56205
LJ             6.182        0.254664        -1.31769
LJ           2.77436         3.27156        -2.67828
LJ           3.00266         3.02436       -0.161983
LJ          -5.98002         4.08779         -1.3217
LJ           4.02628        -2.42466        -1.11837
LJ          -5.62301        0.468844         1.15121
LJ          -4.27028         5.07995        -2.50306
LJ         -0.568477        -2.93931       -0.362308
LJ          -4.91364         3.52845        -2.03299
LJ         -0.193008         1.31157         1.66939
LJ           2.44614        -1.58026       -0.660009
LJ           2.17718       -0.254406         6.11298
LJ          -0.48005         1.42162        0.590383
LJ           4.41233        0.823177         2.29561
LJ           3.86151          1.9619         1.63781
LJ          -6.14575       -0.456814        -2.79063
LJ           4.49276         1.78386         3.09571
