108
#Comment!
LJ           1.64444         6.25858        -3.56399
LJ          -1.91873        -1.17161         1.04599
LJ          -3.74175         4.58009        -2.83465
LJ        -0.0290621       0.0587748         2.00352
LJ           1.18492         2.02455         3.14315
LJ         -0.984214         1.34933         3.28335
LJ           1.10117         5.39875         -3.9012
LJ            3.9091        -2.73047         3.56551
LJ          -3.25374         3.73545        -1.63746
LJ           1.47682       -0.616871        -4.30864
LJ           5.72208         1.40167        -2.71671
LJ           3.40287        -4.55935         4.49538
LJ          -4.41508         6.40356         6.06964
LJ           1.27718         0.29268        -5.47101
LJ           2.51638         4.33297        -4.88088
LJ          -2.97662         1.54883        -3.59879
LJ          -5.93099         2.29701         4.94648
LJ           4.00515        -5.04093         3.14794
LJ            2.9521         1.83456       -0.631879
LJ          -1.66275         3.73026         6.11188
LJ           4.54886         4.04979         2.83366
LJ           3.24084         1.30925         2.30031
LJ          -1.56895         2.32418        -5.72421
LJ           2.95177        -4.51985        -5.62669
LJ            5.3915          1.6997       -0.905939
LJ          -4.34353        -5.37416         1.51508
LJ          0.636633          6.1733         1.99866
LJ           3.44126        -2.55513       -0.156963
LJ          -1.82181         1.77859        -4.10747
LJ          -1.77148        -1.76744        -4.49114
LJ            6.0832         2.14294        0.293106
LJ           4.66492         5.99827         6.15094
LJ           5.85039        -3.61461        -4.71855
LJ          -2.25082         5.74655        -1.45116
LJ          -2.75136        -2.66673        -5.55804
LJ          -6.25325        -3.70646         1.99565
LJ           6.22232        0.134051        0.055079
LJ           2.33021         2.98349         1.72957
LJ          -4.69391        -4.92809         5.94375
LJ           2.98592      -0.0353504        -5.78978
LJ            1.3544         4.52588         5.20044
LJ           3.38417          4.1824         2.74259
LJ           3.35549        -5.21468         -4.7616
LJ          -1.97728        -4.00807        -1.95716
LJ          -6.45988        -4.09895        -3.96805
LJ          -1.97233        -5.75059         3.52192
LJ           5.47997         3.15648         2.84408
LJ            5.4267         5.43544         5.50444
LJ           6.15265         3.55738         4.03759
LJ         0.0569601         -4.7967         1.59284
LJ           2.98898        0.856384        -4.56218
LJ           2.49805       -0.297499         1.37341
LJ         -0.596573        -5.91045        -5.44581
LJ           3.41744         6.12532       -0.966373
LJ           1.85902         3.19365         3.54827
LJ          -5.87334          -4.343        0.140994
LJ          0.474535        -4.97007        -3.52581
LJ            3.4381        -4.46129         -1.6512
LJ         -0.911213       -0.578209        0.569793
LJ           2.22224        -4.27243         5.09362
LJ            1.8421        -5.67001        0.841818
LJ           5.35531        0.574295         3.59486
LJ          -4.27498          -5.128         1.95447
LJ           2.18044         -6.4359         5.14328
LJ           3.13034         4.66569        -1.18365
LJ          -5.09873         1.11366        -5.08831
LJ          -3.88858        -4.84348         4.23916
LJ          -1.73201         6.17454       -0.836378
LJ           4.88843         4.28126        -3.45139
LJ           3.10771         2.30312        0.139092
LJ           -1.4674         3.92817         -6.4201
LJ             5.221        -6.36019        -2.88562
LJ           1.78529         1.72824         0.87954
LJ          -3.99753        -3.70796      -0.0688014
LJ           1.61994         5.83382          4.3686
LJ          -3.03824        0.504499        -4.18637
LJ          -6.11604        -6.26435         5.30841
LJ          -1.07128         5.24736        0.572115
LJ          -2.38762        -1.08773         1.74261
LJ          -4.96607        -2.89794        0.934293
LJ          -1.79847       -0.845391         3.82173
LJ           -4.5383        -3.66006         3.86635
LJ            4.5397        -3.74679        -4.71201
LJ         0.0837718        -5.98592        -4.05903
LJ           2.48335         1.40625         2.51345
LJ           1.18121        0.697464         -4.4739
LJ           1.49258         3.51232        -1.52705
LJ           2.97812         6.42654         5.87827
LJ          0.869896         3.96638        -4.52626
LJ          -2.80834        0.396956        -5.23842
LJ         -0.828195         2.75066        -4.49409
LJ          -6.37129        -5.98625        -2.09173
LJ           1.31991         3.48148        -1.07942
LJ         -0.790781         3.59102         1.28411
LJ          -4.89776         4.80788         6.23988
LJ         0.0948745        -5.34279         0.37143
LJ          0.358201         0.43352        -4.30045
LJ           -5.8923         -1.0998        -5.76328
LJ           3.73182       -0.736012        -2.81903
LJ           5.48042         5.59973         1.48568
LJ           -3.4731         2.64667         -4.6018
LJ         -0.828655         1.90922         3.38589
LJ           5.38622         4.21804         -4.2845
LJ          -6.36015         1.85483         1.28944
LJ          -2.52325        -1.84439         3.44147
LJ           4.02645        -3.89008        -4.10734
LJ          -3.06163         3.69169        -1.27491
LJ          -2.58346        -3.86409        -5.66258
