108
#Comment!
LJ           1.43516         3.97465        0.230045
LJ          -5.90467        -4.81263         5.76796
LJ          -5.51694         3.75841        -2.47479
LJ           5.75823        0.527182        0.520963
LJ         -0.275255        -1.93443         4.84165
LJ          -4.44453          0.7539         2.04217
LJ          -1.27849        -5.20341        -4.79864
LJ           1.68266        -2.54896        -5.62958
LJ           3.84138         2.87023       -0.890816
LJ           -4.7834        -2.45815       0.0194894
LJ          -5.05148         -3.6763         -4.4662
LJ          -5.19934         5.37427        -2.69343
LJ          -2.12014         5.99012         0.37558
LJ          0.894814        -1.37609        -5.92023
LJ          -4.58783        -4.83763         2.81672
LJ           6.29057        -1.30255         2.64505
LJ          -5.87795        -1.49107          3.0604
LJ           6.38731        -1.10403         2.04673
LJ           2.18312         4.45882         2.56922
LJ           1.98513         2.88235         1.49577
LJ         -0.580995         1.25707         3.32434
LJ           5.41255         1.89376       -0.899166
LJ           1.58681        -2.94792       -0.458259
LJ           -3.4339        -4.33499        -1.63221
LJ           3.68774        -3.76996        -2.94962
LJ          -6.26895         6.32955        0.524461
LJ         0.0316158         2.39474         2.29484
LJ          0.480791       -0.981832        -3.61381
LJ          -5.60919         1.16398        0.690244
LJ           2.16769        0.115043         -2.1873
LJ          -6.18421        -1.16455      -0.0100591
LJ          0.263247         4.32897         6.36942
LJ            6.2869        -5.96278         2.93885
LJ          -3.01345         3.49885         3.50755
LJ          -3.48454         3.89558       -0.424926
LJ          -4.88679        0.155673         2.19797
LJ          -3.61289        -5.47433       -0.303278
LJ           3.01838        -3.48822         1.69538
LJ          0.647853        -3.62309         3.19534
LJ          -4.20768         2.38488       -0.315047
LJ          -0.77321        -3.29938       -0.314888
LJ          -1.90209         3.41976        -5.39027
LJ           5.92976        -2.98863        -1.99411
LJ           5.29638        -6.20364        -3.72633
LJ           3.16841       -0.539818         2.80362
LJ         -0.807635        -4.41759        -4.77155
LJ           3.34943        -3.79159         2.05803
LJ           1.53655        -5.83277          1.9406
LJ           1.19829       -0.736652        -2.66058
LJ           2.66085        -1.77404        -3.28083
LJ           5.26645        -5.98958         2.56614
LJ          -1.62063         2.12127        -2.94163
LJ          -3.19914        -5.04152        -6.43841
LJ           3.67085         4.00716        -4.72013
LJ         -0.147238       -0.309197        -6.42224
LJ          -2.96108         5.48165        -5.37453
LJ           4.75254        -6.22492         1.53373
LJ           6.22274        -3.60159         -5.7668
LJ          -2.44236        -2.91034         3.94541
LJ           5.87734        -4.64275       -0.364583
LJ          -1.39259        -2.39034       -0.974127
LJ          -3.33182          5.8248         -3.1746
LJ         -0.776413         3.73342         -2.7911
LJ          -2.56475         2.19903         0.77082
LJ          -1.11646         3.23153         6.02824
LJ           1.32414        -2.58554        -4.33867
LJ           2.01098         3.93174        0.943066
LJ           5.14617        0.581433        -2.38291
LJ           6.36877         3.31559        -5.00922
LJ          -2.02023        -2.71826        0.994389
LJ          -6.40798         4.90532         4.47558
LJ          0.684264          2.6617        -4.94983
LJ          -5.73502         2.83707         5.94047
LJ           4.72053         6.27603          4.4992
LJ          -4.79901        -2.56245         5.22115
LJ            6.3603         4.70746        -1.03518
LJ          -2.83728         5.49646        -3.16097
LJ          -6.04753         5.71575         3.91864
LJ           5.65264        0.364868        -1.06101
LJ          -3.39924        -5.64148         4.00046
LJ           6.31658        -5.93285        -4.82478
LJ         -0.482932       -0.199446         6.15031
LJ          -3.55649         3.99235         3.36689
LJ          -4.82196         5.70032         1.03799
LJ          -1.09874        0.273826           1.564
LJ          0.981105        0.827687        -1.42134
LJ         -0.403462        -4.15663        -5.83673
LJ          0.542416       -0.776844         1.08259
LJ           3.76491        -3.04626        -4.70299
LJ          -3.52617          -3.085        -2.01995
LJ           5.43961        -4.25887         5.37259
LJ          -2.81555          3.3003         5.85209
LJ          -3.16521       -0.995839         5.30314
LJ          -5.08293        -5.31709        -1.49109
LJ          -2.87086         4.45881        -5.82138
LJ          -2.86405        -6.39741        -1.10786
LJ         -0.199484       -0.190317        0.741685
LJ          0.723355        -1.67253        -1.64929
LJ          -6.11538         3.37069        -5.90117
LJ           5.24799         5.05951        0.675692
LJ           3.45947        -2.05557          4.6666
LJ          -4.50184        -6.20725         2.94869
LJ          -4.88638        -5.11777         1.45806
LJ          -2.39566         -6.4041       -0.745385
LJ          -2.26445         1.14926         4.32311
LJ          0.972402        0.873777        -1.64447
LJ          -2.07126         1.10829         4.22326
LJ          -3.26467          4.7316         5.43007
