108
#Comment!
LJ           5.37178        -5.98639         2.01459
LJ           3.42988         5.33948        0.962414
LJ          -2.62666         2.69752        -6.36797
LJ           3.03516       -0.794772       -0.216419
LJ          -4.58441         3.59591         2.29026
LJ           2.01335           5.365        0.242291
LJ           3.05042         2.94392         2.14446
LJ           1.32488         3.74484        -2.70091
LJ          -1.96013         3.69995         3.78033
LJ          -1.73465         3.81208         5.62169
LJ           4.76708        -2.58195         4.14906
LJ           2.13923        0.746704      -0.0952108
LJ          -5.04631       0.0562776         5.59903
LJ          -4.57376          1.8763        -1.96927
LJ           4.67301        -2.76997          -1.614
LJ          0.310227         6.46102         3.22054
LJ         -0.961254        -2.73659        -2.19217
LJ          -2.79552         -1.7247        -4.86474
LJ           3.00967         3.49672        0.440324
LJ          -3.03609        -5.26187         2.31977
LJ           4.73158         4.09234        -2.08642
LJ           3.93558         2.67246        -5.71785
LJ          -0.45475         1.80116         1.70702
LJ          -6.38966        -3.43984         -4.5345
LJ          -6.10449        -2.88615        -2.56755
LJ          -4.76489        -2.99513         3.37897
LJ          -2.46744         2.55458         2.86045
LJ           2.62536        -2.35334         2.93569
LJ           4.09589         4.22251        -2.63329
LJ          0.978252        -5.76287         3.87742
LJ           -1.3428         2.50668        -5.11926
LJ          -2.73264        -6.08545        -5.92309
LJ            4.9836        -4.79129        -2.79961
LJ          -3.81545        -5.29647        -5.26197
LJ           3.30352        -5.84818          2.2235
LJ           -2.4405         2.80729       -0.498633
LJ           3.87225        0.501654         4.06853
LJ            0.4006         1.43246         3.10325
LJ           3.58012          5.5907         1.60642
LJ          -5.91353         1.79677        -5.13535
LJ          -3.05713        -6.33375         1.46558
LJ           1.30728        -2.59332        -3.09427
LJ           6.16753         2.21892         2.02082
LJ           4.23872         2.63208         1.28684
LJ           1.13101        -2.50408        -4.18558
LJ           5.30694         4.83523         6.36869
LJ          -2.44628         2.14454       -0.986121
LJ           2.86383        -2.68025         -2.2278
LJ           5.93753         2.19166        -1.57653
LJ           4.81315       -0.613925         2.84146
LJ           3.02036      -0.0945983         3.56602
LJ           1.44471        -3.33603         3.23096
LJ          -3.06304        -1.52889         3.68976
LJ          -1.97546         4.89418        -3.65454
LJ          -4.79313        -3.23622         5.49654
LJ          -2.35816        -6.43823        0.892415
LJ          -4.01735        0.668311        -4.58227
LJ           4.03017         -4.0434        0.521243
LJ         -0.756874        -1.49952         3.13014
LJ           3.78774        -3.71395       -0.541298
LJ          -5.41654         3.51585         4.79406
LJ           -3.0945       -0.393554         0.72054
LJ          -4.74343        -1.38242         5.22315
LJ          -1.71779        -4.92197         3.21153
LJ           4.47621       -0.228119         2.85235
LJ           1.31425        -4.43436        -3.83721
LJ          -3.78326        -4.47037         2.56458
LJ           -5.4723         6.16472       -0.352025
LJ           0.59486         5.09098         2.96655
LJ         -0.527255         0.76721        -2.60052
LJ           1.91805         1.58599         5.98461
LJ            1.5959       -0.765278         5.15285
LJ           4.41426         5.42264          6.0921
LJ          -2.73785         0.40212         6.08397
LJ          -4.84347        -1.87863        -0.56976
LJ           6.45282         2.11853         6.17062
LJ           1.28429         5.55212        -3.47382
LJ          -5.00414         2.48101         4.35194
LJ          -4.18567          2.4378         2.28139
LJ          -2.23433        -6.36909         5.42902
LJ           1.07532        -3.79081         6.21848
LJ           3.71838        -4.29255        -5.91129
LJ           1.85935         2.43119         6.23897
LJ          -4.85925        -5.53729         -5.7182
LJ          -3.15217        -4.71166         2.10563
LJ          -2.06229        0.366283         3.99211
LJ           3.29583        -3.07879         5.07222
LJ           6.39262        -4.92069        -1.74292
LJ          -4.50222         3.21652           5.869
LJ          -1.36925        -2.80849         3.66744
LJ           -2.7066        0.997995        -5.05139
LJ          0.220244        -5.55266          2.1831
LJ           5.65329        -1.03741        -4.61142
LJ          -6.27905         4.65165        0.802448
LJ         -0.533723         6.46209        0.773452
LJ          -6.01248         4.76384        -5.04122
LJ         -0.747791        -5.23549        -1.04428
LJ           4.55959         2.00073        -3.66779
LJ          -6.06673        -1.60156         1.45593
LJ          -5.34075        -5.57718        -3.52663
LJ          -4.65495        -1.79167        0.891591
LJ          -1.38114         3.75138        -6.45273
LJ           5.21593        0.422429        -1.27803
LJ          -5.64506         -2.6102         2.85887
LJ          -1.28565        -2.62661         5.65488
LJ           5.93198        -4.67581        -1.84104
LJ        -0.0254653         1.95878        0.267552
LJ          -3.71241         4.02606        -4.09658
