108
#Comment!
LJ           2.43508         2.81874        -5.24143
LJ            1.2635         4.63481         2.24649
LJ         0.0661185         1.20361        -2.55813
LJ          -4.87396         1.54061         4.78695
LJ          -4.54019        -2.00537        -1.80619
LJ           0.87089        -2.76175         1.05187
LJ           5.03976        0.652088       -0.597424
LJ          -5.30421         2.96966        -4.64579
LJ          -2.58545         4.60059         4.29684
LJ            5.0173        -4.44587        -3.85281
LJ          0.827043         3.73485         -5.6346
LJ           2.35162        -6.39019        -1.03569
LJ           1.68827        -5.76497         2.65364
LJ          -2.34567        0.640117         5.15249
LJ           5.70776         2.90234         5.74181
LJ           5.99198         4.97484         3.08432
LJ          -4.03769         4.78987         1.94119
LJ           1.67902        -3.60934         2.38426
LJ          -5.02206         1.54932         4.76433
LJ           0.29353        -5.78557         5.08249
LJ          -6.04502        -2.17364        -1.63731
LJ         -0.893438         5.06497         -5.3227
LJ          0.189319       -0.627861       -0.311392
LJ           2.51946         5.49222        -4.08645
LJ           4.71787         2.72085         4.80088
LJ           3.74264        -3.54783        0.849854
LJ           2.83308        -1.54615        -3.22377
LJ          0.538922        -4.10281         2.16803
LJ           5.60077         2.08377         3.14005
LJ          -1.26623         1.48022        -5.06314
LJ          -4.41435        0.478614        -3.72678
LJ           -1.3033        -1.12343         4.26717
LJ           1.06051         6.15366         4.73667
LJ          -4.66219        -5.29847        0.331433
LJ          -4.05624         4.23483        -6.34124
LJ           5.63998         -2.4535        -3.73861
LJ           1.94795          3.5015        -5.79041
LJ            3.6333       0.0144046         4.15118
LJ         -0.162542         5.35787      -0.0272798
LJ          -3.36375        -2.19274        -2.48676
LJ           5.59382        -2.44526         4.99317
LJ          -5.78322         2.55277        -1.92015
LJ           4.15595         -2.4814        -6.12292
LJ          -1.59459        -3.51085        -3.02325
LJ           6.11655       -0.823044         1.06267
LJ          -1.15871         2.98267        -5.60751
LJ           5.19644        -2.14473         2.71293
LJ           5.73961          5.3041        0.970161
LJ           -4.0749         2.72096       -0.666283
LJ          -2.08416        -6.28653        -2.84568
LJ           4.22221         4.39845         6.26519
LJ          -1.55438         3.11008       -0.217648
LJ          -5.83069         4.11451         3.22256
LJ           3.85833        0.983878        -5.66318
LJ           3.89281         1.02352        -5.26041
LJ           5.34775        -2.96331        -4.73951
LJ          -2.12102        -4.86619         3.73722
LJ          -2.72266        -6.15547        -4.25662
LJ           -4.1743        -5.65324        -1.80582
LJ           1.60501        -3.08346        -5.78467
LJ           3.72087         -5.8207         4.96326
LJ          -3.56144          6.2904         4.51694
LJ          -5.07086         1.62638        -2.88539
LJ          -1.59641         2.77685         0.20618
LJ          -3.15215        -3.98338         5.13068
LJ          -3.57324        -1.31245         4.41112
LJ          -4.95422        -4.77294         3.70982
LJ           2.51717        -4.47397        -1.87786
LJ             -1.28        -4.99696         5.76959
LJ           4.88957        -1.10116        -3.79395
LJ          0.398592         2.14966         0.15077
LJ           1.27333         4.66507        -0.17498
LJ          -4.17973         5.58232         4.01169
LJ           1.54816         2.47925        -5.70479
LJ          -5.63968         3.81732        -2.98741
LJ          -5.93466         6.40611        -5.27368
LJ           1.93427        0.301267         4.72964
LJ          -4.49439         2.91365        -2.05113
LJ           2.56495        0.862317        -1.36655
LJ           2.29295        -5.93467        -2.71227
LJ           1.94103         2.71432        -4.41686
LJ          -4.35463         2.52227        -1.94822
LJ         -0.360135        -3.68177         5.80135
LJ          -2.60746        -0.76557        -3.92412
LJ           6.06268        -1.19189        -5.39422
LJ          0.371041        -3.29761         3.13794
LJ           2.89743         5.75187        -4.70634
LJ            5.2446        -4.74574        -1.97942
LJ           5.87792        -5.93341         1.73397
LJ          -0.48657         1.08107         6.41872
LJ           3.53199          4.5748          6.0539
LJ           5.34986         2.17939        -1.00827
LJ          -3.18731        -1.49839       -0.728419
LJ          -5.00396        -3.08088        -2.72735
LJ          -4.02773        -4.12882         5.82372
LJ          -4.88931        -3.26808        -1.29664
LJ           3.89477        -6.03151         5.81659
LJ          -1.21637        -4.60165        -0.16871
LJ          -4.47914         1.41531        -4.91961
LJ          -2.86302       -0.121784        -5.26226
LJ         -0.196167        -3.85363        0.346626
LJ          -5.93699         4.78024        -3.41621
LJ          0.609463       -0.671447         5.76201
LJ          -1.59538         5.35288        0.196172
LJ           4.95842        0.324767         -1.5966
LJ          -2.50704        -2.34279        -6.25357
LJ           6.26964         2.21938        0.615294
LJ           4.56685         4.79339        -1.00838
