108
#Comment!
LJ             3.001         -3.8666        -1.95271
LJ           2.36239         3.28687       -0.932467
LJ           3.16727       -0.604371        -4.14429
LJ          -2.40724        0.457165         1.82645
LJ          -3.52896         -6.0513        -1.47692
LJ           3.12814         4.07214        -2.80267
LJ          -4.68138         3.45885       -0.859497
LJ         -0.987111        0.354621         2.09544
LJ            -1.089        -1.70703         2.29921
LJ         -0.286628        -5.75215         3.05449
LJ           4.36886        -4.52257        -3.61938
LJ           3.76642        -0.92251        -4.68909
LJ           5.68753        -2.01882       -0.781306
LJ          -4.15398         2.08942        -2.75843
LJ           -3.2955        -5.89925         6.12752
LJ           4.43097          4.8828        -3.91667
LJ          -2.41862         5.98434         5.19929
LJ          -6.12478         5.37897        -1.98434
LJ           4.49384        -2.15642         3.10068
LJ          0.389126          3.3918      -0.0112645
LJ          -1.03174        -1.90866         6.05295
LJ           1.20038        -0.98877         5.98031
LJ           3.49911        -2.45904         2.31073
LJ            3.1962        -4.78094        -3.56927
LJ          -3.09925        -1.39292         2.89222
LJ           2.97118        -3.01554       -0.498513
LJ         -0.118645        -1.35809         3.74454
LJ          -6.24936         3.19175        -2.18976
LJ          -3.63141         4.41028        -3.92758
LJ            0.7204         3.58611         6.45044
LJ           6.13052        -2.07999         4.07303
LJ          -3.34677        0.213001         2.44279
LJ          -2.02971         0.39537        -6.39383
LJ          -6.33772        -2.49901         5.65258
LJ          -4.34889         5.64816        0.138768
LJ           6.38282       -0.122779         1.02865
LJ            5.2663         2.48348        -5.72663
LJ          -2.28732         5.55384         6.19567
LJ           2.21491        -3.25159        -1.52509
LJ           4.43538        -6.13668         1.24573
LJ           3.61115       -0.898778        -5.18101
LJ          -1.18951         3.64479        -2.32441
LJ          0.395185         5.32314          1.3719
LJ          -3.82391         1.46673         3.25356
LJ          -4.93235        -6.15633         0.11262
LJ           0.20754        0.704197         1.08695
LJ          -5.08579        -1.86012         5.80027
LJ           5.20096        -4.99335        -1.79761
LJ          0.142502         -6.4247        -3.07383
LJ          -4.95552        -3.93356        -5.25492
LJ           0.27511         6.42048        0.871882
LJ           6.18331         5.49435        -3.45485
LJ          -1.64379         6.36219         3.93613
LJ           2.72827         3.55919        -2.76823
LJ           3.11956        -4.63635         2.67358
LJ           6.41636         5.77182         6.34554
LJ           2.92984         3.48077         6.24779
LJ          0.720773         4.33738          2.5064
LJ           1.61631        -1.50582        -2.14759
LJ           5.76504         3.82115         4.24465
LJ           2.95886           -3.79        -2.28562
LJ           1.65304        -1.04608         -1.3973
LJ          -6.31972         1.79184         -3.2999
LJ          -2.79216        -5.78115        -4.96883
LJ           4.65373       -0.979316         4.94609
LJ           5.20099        -6.18734        -1.36673
LJ          -1.74121        -6.12409         1.26049
LJ          -3.41716       -0.424049         1.49768
LJ           3.85099        -2.23609         2.12708
LJ           5.20571        -2.62403        -3.44843
LJ          -2.00269         0.52289        -5.86774
LJ            3.7332         4.72941         -3.6903
LJ          -2.54392       -0.515234         1.10247
LJ          -3.08042         1.84756         1.53783
LJ            4.2041          5.3593        -5.27962
LJ          -4.77162         5.61416         5.17799
LJ         -0.638809         4.60415        -1.93391
LJ          -5.14048        -3.44791         -6.4576
LJ         -0.644754         4.22129         2.37038
LJ           5.76978        -1.35126         5.62524
LJ         -0.774454        -3.29002        0.899659
LJ           3.07072        -5.11909         4.07325
LJ            4.9501        -6.23958         5.36338
LJ           1.54743         5.09452        -2.07001
LJ          -3.42833         5.82359        0.292643
LJ            2.5669        -4.36148        -1.92135
LJ           2.83558         3.45438        -2.39912
LJ           2.37656        -4.16601        -4.38742
LJ           5.69426        -3.90996        0.710403
LJ          -4.46389        0.532818         5.49909
LJ           5.24264         3.76237         1.39237
LJ          -2.59796        -6.02535        -3.31597
LJ           2.06904        -3.75097         2.84249
LJ           4.77923         4.66816         6.18023
LJ         -0.813227        0.188891         2.30529
LJ           3.60789        -4.22851        -2.96045
LJ          -4.38172         5.03962        -6.01076
LJ           4.67704         5.05822          2.3973
LJ          -4.99662         6.18432         2.91295
LJ          -3.23592        -2.09544        0.147492
LJ           1.13312         4.90712         1.47314
LJ          -2.59963         5.73212         5.00685
LJ          -6.33334        -5.13209        -3.57719
LJ          -4.41338        -1.76637        -4.56467
LJ           4.62737         -1.7967          -1.093
LJ          0.909814         6.04438         5.13618
LJ            6.4406        -5.83342        -4.44613
LJ         -0.543358        -5.59072         3.07384
