108
#Comment!
LJ            3.5028         4.44938        -4.40303
LJ          -4.86986        0.506718        -4.21495
LJ          -4.83999       -0.965271        0.316706
LJ           2.00936         6.29731         4.51063
LJ         -0.114387        -1.43324        -3.83254
LJ           5.50728         5.55411          2.7478
LJ         -0.539446         -2.3335         1.20861
LJ          0.497328       -0.142374        -3.54682
LJ          -5.17716        -3.61478        -6.34862
LJ          0.819294        -3.61929        -4.70769
LJ           2.50728         5.16653        -5.58044
LJ           5.53959        -5.72479        -1.58993
LJ          -6.08276         -1.0433       -0.502765
LJ          0.113949          4.8683         -4.4283
LJ         -0.573084         2.70657        -1.62566
LJ          -4.43928         3.84579        0.683964
LJ           2.46139        -1.40411        -4.17174
LJ         0.0844799        -1.55805        -6.32463
LJ          -2.57379       -0.754498        -2.07167
LJ           2.79324       0.0346352      -0.0854342
LJ         -0.190889        -3.26085        -3.95261
LJ           1.92384        -2.67132         6.01576
LJ           4.02604         2.19761         2.52078
LJ          -5.09838         1.14938         3.42269
LJ           5.95188        0.169625         6.14605
LJ           -4.4838        -1.11507         6.15312
LJ          -5.67067       -0.689875        -6.42258
LJ          -2.26889         3.59254         6.23984
LJ           5.18877         1.93496         5.03808
LJ           4.86144         4.06503         2.61942
LJ         -0.263584         4.22034        -3.45815
LJ           2.00876        -2.64456        -5.49108
LJ           5.19768        0.557752        -6.11425
LJ         -0.734084         4.16081         -5.2304
LJ           2.72845        -3.67436        -5.66175
LJ           3.66893       -0.092534        -1.31612
LJ          -2.22718         5.26947         3.98675
LJ          0.264985        -1.51995       0.0510701
LJ          -1.97234         3.28929         1.20041
LJ          -4.03377       0.0369515       -0.699267
LJ           1.85524        -1.86303       -0.688674
LJ          -4.44497        -2.23185        -5.28218
LJ          -5.69442         5.66061         1.02854
LJ         -0.854234        -3.09276        0.342285
LJ         -0.410883         -2.3717       -0.175662
LJ          -5.12618         1.64349         2.22179
LJ            3.0265       -0.432679        -2.54572
LJ          -2.47746        -2.37705       -0.292303
LJ           6.14965        -2.85093        -4.24217
LJ          -6.29874      0.00738261       -0.771581
LJ           -6.3878         1.54088          2.2916
LJ            3.1093         1.80869          4.4121
LJ           3.46687         2.34673         5.95584
LJ          -4.52706         2.61354       -0.304231
LJ          -1.25836         3.26728        -2.62925
LJ         -0.797866        -2.76879         5.53919
LJ          -1.47595        -1.00665         -4.7014
LJ           5.82352         1.31834        -3.30915
LJ           -3.6175         -4.3134           1.201
LJ          -5.15065       -0.423274       -0.869827
LJ          -4.70039         6.41052          5.1108
LJ          -2.01186         4.21302        -5.59234
LJ           3.63527         -4.4348        -1.42664
LJ          -4.47366         1.22082       -0.325828
LJ           -3.4616           2.886        0.542932
LJ          0.738565         5.69036         2.72746
LJ          -3.19898        -3.73861        -1.13723
LJ           2.03555        0.929408          1.0248
LJ           2.82155        -2.05457       -0.301875
LJ           1.99013         4.23949          2.1078
LJ           -1.6393         1.07234         1.98731
LJ            1.5579        -3.34652        0.466325
LJ          -1.24178         -2.0335        0.342274
LJ          -1.48587         -1.3007        0.990348
LJ          -4.44187         3.03048         4.25051
LJ          -4.76954         6.31966        0.476044
LJ          -5.32435        -6.26609         6.27567
LJ          -1.72106        -2.94708        0.992776
LJ           1.42036         -5.2331         6.20953
LJ          0.760209        -3.48127         1.14934
LJ          0.438574         2.98739         3.92365
LJ           3.83547        -1.43523        -2.11422
LJ           1.77302        -2.73184         -1.3548
LJ          0.159137        -3.04434         2.07768
LJ          -5.57256        -4.31805        -2.02679
LJ           -5.2211         0.81126         1.02196
LJ          0.761931         1.00141         1.09335
LJ          -1.14979       -0.771128        -1.54475
LJ            5.5808       -0.159973       -0.515946
LJ         -0.213628        -2.57746         4.38626
LJ           1.04764        -2.49461         3.45102
LJ            5.5347       -0.283879        -2.73864
LJ           1.28401        0.945398        -1.60385
LJ            3.2143         2.71991        -1.13413
LJ            5.2221         3.48573      -0.0359739
LJ           3.26236       -0.860485         0.53514
LJ          -5.40746         0.20922      -0.0992718
LJ          -3.58055         2.45562       -0.824792
LJ         -0.256671        -2.36092        -3.41205
LJ          -4.20509         3.30054        -1.49431
LJ          -1.25607        0.137528          2.5626
LJ             2.377        -4.65142       -0.287291
LJ          0.919144        -1.07102         4.07016
LJ         -0.169215         0.85242         1.88311
LJ            3.9612        0.344978         1.69733
LJ           3.33432         1.32355         1.79769
LJ           3.86281         1.11634        -2.61175
LJ           4.17207        0.996915         2.70384
