108
#Comment!
LJ          -3.03252         -3.0943        -3.12762
LJ          -1.98734        -2.33856        -2.96069
LJ          -3.20132        -2.21998        -2.25026
LJ          -1.85436        -3.19095        -2.07941
LJ         -0.865734        -3.18791        -3.04125
LJ          0.333691        -2.19335        -3.34132
LJ          -1.26493        -2.20138        -2.10425
LJ         -0.018244        -3.15361        -2.10926
LJ           1.46736        -3.27394        -3.19351
LJ           1.88358        -2.05108        -3.11011
LJ           1.01778        -2.45167        -2.33567
LJ           1.97831         -3.2486         -2.2134
LJ          -3.36665        -1.08392        -3.05039
LJ          -1.98313       0.0914175        -3.19909
LJ          -3.12327        0.232493        -2.00659
LJ          -2.19814        -1.25235        -2.01822
LJ         -0.977014       -0.946486        -3.09015
LJ         0.0356104       -0.220233        -3.34349
LJ          -1.12682        0.302119        -2.24672
LJ         0.0527049        -1.06582         -2.1589
LJ           1.02821        -1.06926         -3.1391
LJ           1.93877        0.228538        -3.04669
LJ           1.12473       -0.273812        -1.87814
LJ           2.46103        -1.04857        -2.03148
LJ          -3.35286         1.00294        -3.34057
LJ          -2.41771         2.17776        -3.27577
LJ          -3.24093         1.92911        -2.22531
LJ          -2.19263         1.16126        -2.15367
LJ          -1.18444        0.949986        -3.05724
LJ         -0.198731         1.96098        -3.17277
LJ           -1.2408         2.24263        -2.33101
LJ         -0.268997         1.03057        -2.15611
LJ          0.967422         0.85257        -2.69577
LJ           1.89302           1.988        -3.15148
LJ          0.960871         2.07531        -2.18356
LJ           1.90268         1.30989        -2.03972
LJ          -3.06487        -3.40643       -0.974282
LJ          -2.10402        -2.37969        -1.03301
LJ          -3.21084        -2.47513        0.004382
LJ          -2.19387        -2.99617       0.0395453
LJ         -0.909711        -3.13174       -0.947373
LJ         0.0553353        -1.93616        -1.22637
LJ          -1.19064        -1.80356       -0.133632
LJ        -0.0503311        -3.14563       -0.225864
LJ          0.744077        -3.09741        -1.16376
LJ           2.48898        -2.00136       -0.969725
LJ           1.08493        -2.04513       -0.200019
LJ           1.99987        -3.15166         0.05264
LJ          -3.31152       -0.657384          -1.035
LJ          -2.01752       0.0529481        -1.31864
LJ          -3.48506      -0.0502433       -0.209911
LJ           -2.2894       -0.956943       -0.278502
LJ         -0.865802        -1.51777        -1.59504
LJ         0.0960173        0.242103        -1.14563
LJ         -0.948246      -0.0793716       0.0662386
LJ        0.00548543        -1.12142        0.200758
LJ           1.07823            -1.1        -1.24341
LJ           2.17996       0.0842296        -1.18987
LJ          0.900855       -0.100967       -0.111319
LJ           1.97729        -1.04277      -0.0191536
LJ          -3.28543         1.33312       -0.919417
LJ           -1.9943         2.07883        -1.23893
LJ          -3.43842         2.13212       -0.238215
LJ          -2.17593        0.889712      -0.0591325
LJ          -1.13553        0.911333       -0.842229
LJ         0.0202332         2.00066        -1.26799
LJ          -1.00929         1.86492       -0.148393
LJ         0.0651037         1.25553        -0.22286
LJ          0.925649         1.06784        -1.20559
LJ           1.93096          2.1613        -1.04832
LJ          0.948258         2.06502       0.0983503
LJ           2.05541         1.28648        0.138444
LJ          -3.14345        -3.19893         1.08512
LJ          -2.19151        -2.08741         1.29046
LJ          -3.16156        -1.90087         2.09416
LJ          -2.22713        -3.37372         2.06833
LJ         -0.879284        -3.44324         1.25965
LJ        -0.0333778        -2.36054         1.11815
LJ         -0.807933        -1.80961         2.20035
LJ          0.131568        -3.11817         2.06886
LJ          0.871108        -3.27411        0.907271
LJ            2.2076        -2.21364           1.004
LJ           1.18508        -2.24059         2.05781
LJ           2.10946        -3.32524         2.14335
LJ          -3.22857         -1.1377         1.16566
LJ          -2.35899      -0.0416289         1.03332
LJ           -3.0822       0.0859327         2.17241
LJ          -2.29943       -0.864279         2.00717
LJ          -1.26458       -0.863011         1.05547
LJ         -0.175215       -0.232886         1.20703
LJ         -0.971835      -0.0749037         1.96359
LJ          0.124429        -1.13445         2.44498
LJ           1.17211        -1.17003          1.0021
LJ           2.05094         0.18592         1.12069
LJ            1.3645        0.176814         1.98366
LJ           2.11928        -1.02026         1.94271
LJ          -3.21231          1.0956        0.968336
LJ          -2.16259         2.28038         1.03865
LJ          -3.05896         1.94995         2.37261
LJ          -1.93229         1.12325          1.9301
LJ         -0.972888        0.946523         1.30043
LJ         0.0112277         2.35215         1.07809
LJ         -0.979945         2.12347         2.33021
LJ         -0.121401         1.02962         2.34991
LJ           1.28369         1.22989         1.01983
LJ           2.27012         2.00647          1.0949
LJ           1.02939         1.88636         2.07788
LJ           2.34008         1.04412         2.34297
