108
#Comment!
LJ          -5.57971        -5.28501        -3.60401
LJ          -2.89669       -0.235657         -3.7313
LJ          -3.28358        -1.82933        -1.77812
LJ          0.205158        -5.37721       0.0716707
LJ         -0.124617        -2.77443        -3.10417
LJ           2.52314         -3.7769        -6.28892
LJ          -1.82182        -2.61254        -0.31036
LJ         -0.347213        -1.78122        -2.73739
LJ           4.60241        -2.51121        -4.68484
LJ          0.845767        -2.01299        -2.52838
LJ           2.36136        -5.19532        -4.92812
LJ           2.60304        -4.02993        -1.50078
LJ          -4.06537       -0.421377       -0.808264
LJ          -1.92938         1.04774        -3.76777
LJ          -2.28184         1.27947        -1.71296
LJ          -3.36888        -4.55976       -0.932062
LJ          0.526749        -1.18511        -3.07641
LJ        0.00608199         -1.2998        -4.10898
LJ         -0.876245       -0.680084        -1.74177
LJ           1.09475        -1.07273        -2.01746
LJ            1.1737        -2.09801        -3.61637
LJ           1.87612       -0.349931        -3.81715
LJ           2.63781         1.12976       -0.204687
LJ           4.61767       -0.521393     -0.00107857
LJ          -4.18142         0.59013        -4.90269
LJ          -4.72227        0.956437        -3.68698
LJ          -3.42707        0.746854        -4.02749
LJ         -0.690548          1.1388        -3.95252
LJ          -4.33319         1.29323         -6.2403
LJ          -3.79537         2.11825        -5.51855
LJ          -2.10611         2.01767        -2.94644
LJ          0.663229       -0.141455        -3.14009
LJ           1.68998       -0.239372         -2.4677
LJ          0.179368         1.96427        -4.01468
LJ         -0.140414          3.8778        -2.30397
LJ           2.70002        0.944028         -2.2632
LJ          -1.67927        -6.01722          1.0554
LJ         -0.715634        -2.41949        -1.86991
LJ          -2.63296        -6.01568        0.674949
LJ          -1.75144        0.293269       0.0307062
LJ           1.04824        -2.83144       -0.520374
LJ          -1.81458         -1.0134        -3.52119
LJ           -3.8981        -2.18198          0.5929
LJ         -0.154888        -2.51439       -0.153963
LJ          0.411426        -1.96623        -1.52615
LJ            5.3917       -0.166689        0.653375
LJ           2.24612        -1.14144        -1.45237
LJ         -0.780518        -2.86152         1.23444
LJ          -4.42035        -1.30727        -2.83291
LJ           -2.7912        0.516502       -0.941879
LJ          -5.65685         1.61661        0.981758
LJ           -5.7253       -0.148127         1.26751
LJ           1.09071        -4.89721        -4.31521
LJ          -1.49813         2.46975       -0.777148
LJ         -0.807389        0.920483       -0.966686
LJ          0.247875        -1.26792         1.90928
LJ          -5.58648        -2.15841         1.19651
LJ           3.74605        0.792934        -1.97265
LJ          -1.52068        -1.45106       -0.746719
LJ          -1.27258       -0.509923       -0.462608
LJ           -3.8581         3.46332         1.51868
LJ          -1.98088         3.16204        -2.73053
LJ           6.15668         5.00354       -0.416472
LJ            -3.198       0.0660213      -0.0809104
LJ          -2.65166        0.726082        0.457511
LJ       -0.00237109         3.76591      -0.0767257
LJ          -1.25119         4.19474       -0.583783
LJ           0.68572         1.78638        0.241334
LJ          0.859476      -0.0760532        0.173067
LJ         0.0397478         5.12958         0.97038
LJ          0.311811        0.664857         1.86744
LJ            1.6695          4.6696       -0.488362
LJ          -1.49637        -1.52605        0.749005
LJ          -1.96872        -1.19911         1.84183
LJ          -2.97967        0.546615         3.59494
LJ          -3.44238        -4.23136        0.789765
LJ           2.19767        -5.12704         4.41977
LJ          -1.70381        -3.36067        0.882542
LJ          0.500673        -1.83384          4.1835
LJ          0.768201         -2.7395         1.23861
LJ          0.734994         -5.9316         2.32004
LJ           3.42966        -1.59144        -1.21231
LJ           1.60166        -3.04221        0.263018
LJ           1.64903        -3.80911         1.51262
LJ          -3.64474        -3.37746       0.0663155
LJ          -4.26201         0.77419       -0.232119
LJ          -1.27658        0.975436        0.532027
LJ          -2.46176        -1.07017        0.391458
LJ          -4.02596      -0.0933604        0.548424
LJ          -0.64917       -0.904553         2.97686
LJ          -2.20091         -1.5388         2.98202
LJ           2.75817        -1.07729         5.85109
LJ          0.971807        -1.55594       -0.134309
LJ           2.91892         1.98542        -1.04322
LJ             2.885         2.44782         1.95205
LJ             1.936       -0.172232       -0.101295
LJ          -3.77366         1.11037        0.700329
LJ          -2.67777         1.80027        0.286131
LJ          -1.24147       -0.661804         5.35943
LJ          -2.03818         1.29009       -0.470017
LJ         -0.636616        0.255035         1.15583
LJ          0.831307         3.99696        0.533967
LJ         -0.071084          1.1232         3.51245
LJ          -0.10075       0.0873816         2.76715
LJ           3.12042         1.16881         1.10267
LJ           2.59625        0.283407         1.71816
LJ           1.52389        0.728918         5.70843
LJ           3.46709         0.69005         3.08869
