108
#Comment!
LJ          -3.63127        -4.54809        -3.13392
LJ          -4.89825         2.31116        -3.92902
LJ           5.97911         3.92228        -3.65311
LJ           1.36294         3.24019        -4.44115
LJ          0.244916        -1.14698       -0.189241
LJ           4.45294        -1.98917         5.97477
LJ          -3.35609        -6.20787        -4.31417
LJ           1.34075         1.70161        -4.17869
LJ          0.316675         1.88574         3.06479
LJ         -0.160276        -3.47864          4.5304
LJ           4.17084        -5.22855        0.136114
LJ           0.62466        -5.67886         5.47988
LJ           1.70007         4.13561        0.678438
LJ          -2.04337          4.9035        0.397409
LJ           3.89845         6.21328          -1.344
LJ            4.8254         -6.4224        -4.81036
LJ            2.9988         4.32985         5.52958
LJ          -5.06576        -5.32331         5.95952
LJ           1.64777        -1.24137         3.88354
LJ           2.33706         5.23173         2.84916
LJ           1.58857        -1.01611        -3.02412
LJ          -1.42608         4.14284        -1.11213
LJ           5.68544       -0.917418        -1.20771
LJ           2.84752      0.00767614         3.86585
LJ            4.9242        -4.54238        -1.54453
LJ           2.71468         3.38917        0.123501
LJ           6.04231       -0.384273        -2.70538
LJ          -3.83812        -1.15903         2.08235
LJ           2.63004        -3.16309      -0.0308006
LJ           4.11507         4.56508         2.91662
LJ            2.6307        -2.07809        0.190352
LJ          -1.46798        -4.66693        -3.33601
LJ          0.962631        -1.38267       -0.116759
LJ           4.83561         3.95363         2.97872
LJ          -2.53691        0.365336        -2.35918
LJ          -5.69729         2.94835        0.734261
LJ           5.07453       -0.931958        -2.15168
LJ          -3.35755         1.46525        -2.57971
LJ           1.56978        -4.18481         -6.3137
LJ           4.17729         3.39737        0.412705
LJ          0.532289         3.46502        -3.45194
LJ           2.79716        -4.32452         -2.2449
LJ           3.42586          4.1317         -4.0769
LJ           -5.2226        0.497047        -1.69254
LJ           2.52302        -6.45446        -1.16526
LJ           4.99629        -3.49531        -5.49664
LJ          -4.66791         6.40385         2.50348
LJ           6.11366         1.31735        -2.70805
LJ          -5.12565        -2.68142        -4.34831
LJ          -3.35701        -2.04928        -4.82578
LJ          -1.57805        -3.59059      -0.0670753
LJ          -2.38839         4.83787        0.851615
LJ            3.3734        0.790443         3.41906
LJ          -1.56305        0.181865        -5.20342
LJ          -4.58004          5.6544       -0.544983
LJ         -0.583503        -5.03673        -1.14543
LJ           -1.1788        -3.03876         1.40881
LJ          -3.47195        -4.00161        -4.09656
LJ           2.79132        -5.10569         1.32175
LJ          -1.65868        -4.84335        0.888843
LJ           1.94038        -2.96725         4.55911
LJ          -1.24082         1.46377        -1.19946
LJ         -0.108576         5.93978         6.14039
LJ          -5.18202        -4.15967        -4.55461
LJ         -0.450202       -0.190489         3.43298
LJ           1.90306        -5.25856         4.63754
LJ           2.79544       -0.751801         1.09596
LJ          -5.15969        -1.35281         5.83425
LJ          -6.43193        -6.34974        -5.02501
LJ           1.05023         5.36138         1.66043
LJ          -2.05247        -1.83358        -3.88204
LJ           4.86183         3.86437        -2.78382
LJ          -6.45999         1.44578       -0.239664
LJ           6.36485        -5.55447        -2.24651
LJ          -6.22287        -6.34255         4.73805
LJ          -2.29022        -4.35412        -5.60816
LJ           4.16475         1.47766        -4.56197
LJ          -1.67075         5.65145        -2.94364
LJ          -1.34435        -3.21233         3.63166
LJ          -4.86129         3.93116        -2.13932
LJ           3.82186         4.98497         -3.8127
LJ          -1.08554        -5.86848        0.613791
LJ          -5.10575       -0.371947        -3.99212
LJ          -5.74399        -3.98792        0.326277
LJ          -3.61768         5.66323           4.454
LJ          -5.16094         3.78258        -3.31652
LJ           4.25248        -5.31341         1.66459
LJ          -2.10819        -3.87342        -2.36076
LJ          -6.33931       -0.697627         -4.4464
LJ         -0.847233        -3.42743        -3.23087
LJ         -0.266205        -3.46503       0.0889584
LJ           5.28258         -1.6186        -4.69246
LJ           5.53421        -5.41373       -0.520385
LJ          -4.87805       -0.165942        -6.44657
LJ          -2.19528        -6.06043         1.11394
LJ          -2.86255         3.26133        -4.01741
LJ         -0.360372         3.67586        -4.47195
LJ          -3.21356         3.76069         1.54193
LJ          -6.10812        -3.79561        -6.34739
LJ           1.94132        -1.65632       -0.639767
LJ           2.04659        -2.16287         4.95182
LJ          -2.63112         -2.7164         2.47814
LJ         -0.885297         2.04187        -2.71814
LJ          -5.81815        -3.80474        -2.26264
LJ          -2.21218         1.16897        -1.65198
LJ          -3.56656         -5.2422         5.22238
LJ          0.327491         6.37867         3.61681
LJ           5.56373         3.90594         6.04889
