108
#Comment!
LJ           5.77966         2.37686         -6.1092
LJ             5.266         -3.9902         -2.6745
LJ           6.27528        -2.58309        -5.52978
LJ          -5.25825        -2.16472        0.170429
LJ           3.57638          4.7259         4.91228
LJ           1.70328         2.01663         1.42478
LJ         -0.655087         6.35916      -0.0575688
LJ           5.43707         5.26828         2.51858
LJ          -2.86881         4.81352         5.79247
LJ           3.91731        0.688422        -6.20663
LJ           6.05754       -0.487456        -3.06716
LJ          -3.27476        -5.31156         5.42267
LJ          -2.28603         1.77213         6.29385
LJ          -6.30951         6.17657        0.102798
LJ          -3.28558         2.37594        -4.52498
LJ          -4.46794         4.17715        -6.07423
LJ           6.27928          5.0954         1.78107
LJ          -4.64684        -5.87815         4.99969
LJ           5.77519       0.0617167      -0.0156038
LJ          -3.64127       -0.377078        -6.06644
LJ           2.56061         1.55606        -6.05392
LJ         -0.772207       -0.125933          1.1172
LJ         -0.734024         5.65066        -4.46836
LJ           5.41977         3.79213         1.28877
LJ         -0.338411         -5.3272        -6.35322
LJ         -0.394246          6.2232        0.472873
LJ          -1.99838        -2.34421         5.54484
LJ          -1.49826         4.79863         2.18904
LJ           2.20423        -0.26731        -4.24974
LJ           6.16866        0.943376         4.93105
LJ           -1.0844         6.28475         1.59246
LJ          -1.42913       -0.547232        -2.10609
LJ           -5.8367        -1.33345         -1.5764
LJ           1.97345        -5.59543         4.12458
LJ          -4.62608         1.35209        0.606781
LJ          -2.55528        0.501937         5.87471
LJ           5.87633        -4.58769       -0.750516
LJ           3.26711         5.55181        -6.35377
LJ           2.56923      -0.0379742        -5.77844
LJ          0.991333         1.83609        -3.95671
LJ         0.0589096        0.907341         2.77823
LJ           4.89092        -1.73321        -6.37083
LJ           1.77409         6.43555        -0.79384
LJ          -3.21146        -1.15791        -5.21351
LJ          0.318973          -6.153        -1.57244
LJ           6.15254         4.70772        -2.45316
LJ           4.86103         5.17245        -3.92064
LJ           1.26648        -5.14227        0.237837
LJ          -6.12983         -3.4528         2.61949
LJ           3.19014        -3.22243        0.383999
LJ          -4.68983         3.85887        -6.25367
LJ          -1.10832         4.96892        -5.92932
LJ           4.58854       -0.886997        -5.76732
LJ          0.174894         4.98984        -2.99939
LJ           6.06421        -6.10486         6.45212
LJ           3.72254        -3.31289        -3.01788
LJ          -2.73877         4.43084         2.26009
LJ           -5.5173        0.743074         5.82414
LJ          -3.28185       -0.616835        0.235812
LJ           5.05138         5.96681         3.52821
LJ           3.84509         2.34882         5.42288
LJ           1.58708        0.551351         2.65799
LJ          -4.63926        -4.01323        -2.96416
LJ          -4.40013         3.39908        -4.62855
LJ           3.42703        -1.79723        -4.32948
LJ          -1.64007        -4.79143        -1.15593
LJ          -6.29092        -3.58371        -2.66081
LJ           6.43893         2.42148         5.62437
LJ           5.34505         6.04495         5.76571
LJ           1.68727        0.726051       -0.569101
LJ          -4.02884         2.63187         2.73059
LJ          -5.87647       -0.776034        -4.45645
LJ           4.45066        -2.68677        0.227017
LJ          -4.19305         3.17776        -1.43374
LJ           1.74131        -2.95934         0.52663
LJ          -2.75922         1.43295       -0.640628
LJ          0.157335       -0.944729         -3.0112
LJ          -1.56822         3.79289         -6.0933
LJ           1.17271        -3.41116         5.48193
LJ           4.44649         3.04925          -4.913
LJ          0.407845         5.69829         6.17871
LJ           1.30173         3.33465         2.26614
LJ          -4.20355         1.04674         4.96089
LJ           1.60917         3.87424        -3.63584
LJ           5.52765         1.38866        -4.59363
LJ           3.66281         5.82758         5.91173
LJ           3.61333        -3.24682         1.98299
LJ           0.18888         2.69597         -1.6919
LJ          0.742782         2.12161         0.16605
LJ          -2.33074         2.43518        -2.39755
LJ          -5.64469        0.894228        -5.92922
LJ          -1.56376        0.571552          2.0101
LJ           1.98292        -4.79746         6.13774
LJ           5.01906        -3.23146        -4.59344
LJ         -0.939045        -3.53028         -5.9126
LJ          0.630265         2.58381          3.5503
LJ          -2.12329        -5.38766         2.95201
LJ            1.8804         2.87643        0.334341
LJ          -2.72477         4.44955         1.46263
LJ          -4.05955         3.71636         2.53568
LJ           3.09536         1.82491         0.13665
LJ          0.598864        -2.23988         2.24564
LJ          -3.62716        -2.79475        -6.01529
LJ         0.0846981        -2.45838        -3.39626
LJ           1.89711         3.49237         2.87819
LJ           2.47155       -0.441201        -6.13051
LJ           1.37708         4.61703        -3.64421
LJ          -3.70318        -3.66262        -4.24108
