108
#Comment!
LJ           1.60948        0.062636        -3.21738
LJ           4.87225        -1.22483        0.507127
LJ           1.83687        -1.06587          1.4449
LJ           5.08454         4.15878         2.10258
LJ           -2.5739        -4.11012         4.82298
LJ           3.15758         6.05162        0.740739
LJ          -1.90922        -1.20269         4.96145
LJ           5.05518        -1.88133        -3.32977
LJ          0.562828        -6.17225         1.08909
LJ          -4.56448       -0.126759        -5.64946
LJ          -5.32618       -0.829678        -5.81104
LJ          -3.97762        0.928268        -1.34513
LJ          0.667693         3.46426        -1.80265
LJ          -5.28901         1.75035         1.04559
LJ          -2.08451         0.64317        -5.64983
LJ         -0.653782        -4.52349        0.822217
LJ           1.30046        -5.19232         5.91313
LJ          -1.39772          1.7631         -4.2224
LJ          -4.16272        -2.33178          4.9112
LJ          -3.22015       0.0628518        -4.43493
LJ          -2.03006        0.222775         2.62894
LJ           4.43309         6.25038         1.53038
LJ          -5.46355         0.69753        -3.95669
LJ           1.27478        -5.40028         3.66057
LJ          -1.94358        -4.30466         1.55885
LJ           5.35996         -4.5507        -3.75594
LJ          -5.16456         3.63704        -2.74529
LJ          -6.20298        -2.01408        -3.84008
LJ           1.31903        -4.20211        0.273757
LJ           1.81385       -0.292631         5.72114
LJ           2.08045         3.76106        -3.35895
LJ            4.5346        -5.80779       -0.711812
LJ           6.06571        -2.74462          4.2112
LJ           3.52299        -1.78169       -0.590143
LJ            4.7507         5.25695        0.747669
LJ         0.0682491       -0.797554           6.178
LJ         -0.809525         5.82564         3.85939
LJ          -4.38432      -0.0733115         2.13958
LJ           -3.2467        -1.41809           6.319
LJ           6.32921         4.72533       -0.288756
LJ           1.32711        -4.17384        -4.33459
LJ          -2.86074        -6.26151         5.11341
LJ          0.417981        -4.56639         -4.1464
LJ          -5.31932        0.492716         1.60522
LJ          -4.60328        -5.55198        -4.78997
LJ           5.13935         2.66704        0.983542
LJ          -5.73374        -2.78574        0.563761
LJ          -2.11406         1.31412          6.2609
LJ          0.162466      -0.0406304         4.97814
LJ           6.16749        -2.57682        -3.10265
LJ         -0.452212        -4.09446         -0.6869
LJ          -1.56897        -4.52194        -2.11692
LJ          -1.11348         1.22288        -1.82901
LJ           3.22606         5.82484        -1.06254
LJ           3.90398        -5.82319        -3.28771
LJ           6.04796         4.49325         5.13618
LJ           1.14829         3.71085        -4.66838
LJ          -3.59544         5.87068        -1.15082
LJ          0.910194        -2.66001        0.695759
LJ           5.89233          3.7553       -0.895535
LJ           1.03379       0.0542959         3.79338
LJ          -3.43661         4.27082          4.5224
LJ          -5.83707         5.05101         5.63016
LJ           3.49597         6.04272         2.32998
LJ           6.39458         -4.0091         3.63817
LJ           3.50305        -4.79429        -3.55149
LJ           4.41214        -1.67682        -2.25458
LJ          0.714557         1.86113        -1.50705
LJ            5.4139        -1.20807        -2.40879
LJ         -0.256667         4.24998          4.0836
LJ          -3.50593       -0.186681         1.57943
LJ          -5.36602       -0.828752         5.08635
LJ           -6.4102        -1.67457       -0.472101
LJ          0.848148        -5.02543        -5.34306
LJ          -3.07981        -0.67287        -3.90898
LJ            2.8193         1.87391        -4.09554
LJ          -5.51562        -5.06533        -2.35032
LJ         -0.605137        -1.45296         5.10108
LJ          -3.41704        -6.18678        -4.82778
LJ         -0.744941         -3.3158        -5.60959
LJ          -1.15198        -1.89659        -2.49149
LJ           6.27832       -0.551709        -2.87127
LJ           3.17519         2.49501        -3.08203
LJ           -3.4936       -0.320148         4.28728
LJ          -1.95341         3.90299         5.05121
LJ          -3.70276       -0.505664       -0.855275
LJ          -2.77561       -0.965648         2.00193
LJ           5.65663        0.632673         4.09458
LJ           3.94153       -0.245413        -1.29439
LJ           -0.1488         3.92028        -2.63688
LJ          -4.56113         3.17569         4.96695
LJ           5.09346       -0.270771        -2.81022
LJ        -0.0108871         4.92243         5.93155
LJ           2.42306         1.92844         3.16662
LJ          -2.97352        -5.79553        -5.94106
LJ           5.17716       -0.869991        -1.39164
LJ           -1.3462       -0.532459         3.90801
LJ         -0.162318        -2.65554        0.353106
LJ         -0.150803         6.24419         5.39798
LJ           3.50531         3.74198       -0.676276
LJ          -3.39118        0.857747         2.46489
LJ           4.11964      -0.0277913        0.721708
LJ           4.26463         1.31436        -1.73944
LJ          -3.19643        -0.55368        0.530346
LJ          -5.49666         4.13862        0.251686
LJ           4.10715         2.12957         3.24526
LJ          0.552221        -5.44442        -1.40693
LJ          -6.05301         1.02674        -4.96632
