108
#Comment!
LJ          0.900913         2.27642        -4.91395
LJ          0.695296       -0.861923        0.264531
LJ          0.868052        -3.95255        -1.61302
LJ          -3.29767        -2.53249         5.70209
LJ           6.39409        -1.48904         -2.3633
LJ          -1.56673         1.45532          1.5736
LJ         -0.306917         4.83877        -4.24287
LJ           5.73377        -5.48126        -3.98132
LJ          -5.22059        -1.12579         4.74265
LJ             -3.75         5.55803       -0.194876
LJ           3.67731       -0.735875          -2.743
LJ           1.72862        -3.96876         1.05416
LJ           1.95988         1.77036          2.5624
LJ          0.902896         2.02887        -6.40375
LJ           5.31142         5.48219        -4.10957
LJ           4.29062        -3.67048        -2.08226
LJ          -5.15111        0.334573        -4.23226
LJ           0.57645         1.13139         -1.1399
LJ          -4.90802       -0.858982         1.16501
LJ          -3.33797           1.283         2.96026
LJ            4.0374        -6.35557         5.09658
LJ          0.846482        -3.48321        -3.48013
LJ           3.10658        -5.53765        -2.07864
LJ          -6.33795         3.85775       -0.642456
LJ          -3.89037         3.16249        0.749789
LJ          -2.41357         1.05488         6.40916
LJ          -5.65815        -2.74725         2.74409
LJ           -1.6677         -6.3589          -5.685
LJ           3.41877         4.31898        -1.66983
LJ          -4.66141        -2.23273         4.05723
LJ          -3.19538         1.65185        -2.96582
LJ          -3.29589         0.76529         6.18724
LJ          0.376771        -3.06723        0.145017
LJ           3.17596         5.89471         2.62062
LJ           6.23309         2.91473        -2.86203
LJ           4.58012         1.05012         -3.1862
LJ          -6.12358        -2.39934        -4.51034
LJ           6.42411         4.57233         5.22022
LJ          -1.93781         2.65021        -4.03262
LJ          -2.69547        0.534605        -6.28087
LJ           2.03989        -4.06743         2.18147
LJ            1.2065         2.47077         1.80539
LJ         -0.653466        -2.57732        -5.11821
LJ          -1.96194         2.66426        0.159467
LJ          0.602998        -3.97633        0.445423
LJ           5.99565         4.63456          4.7513
LJ           3.71577         4.26568        -3.43957
LJ          -2.45964         -4.1452        -0.99511
LJ           1.48735        -2.93619        -4.45341
LJ          0.648938         4.39023         3.56229
LJ           4.69485         1.17681         6.38249
LJ          0.245533         1.36946        0.720699
LJ         -0.334997          3.8227         3.97953
LJ           6.30212        -3.59407         -4.3756
LJ           1.88488        -3.10417       0.0833204
LJ           1.07552        -4.70858       -0.105302
LJ           5.37951         4.89908         6.16765
LJ           4.57717        -1.02097        -1.15727
LJ           1.08646        0.907932        -3.47336
LJ          0.828491         3.27565        -2.88717
LJ          -3.49854        -5.68517         3.31408
LJ         -0.975631          1.4918        -1.06884
LJ           3.65615         1.02841        -6.23863
LJ          -0.55897         3.41875        0.488103
LJ           3.96756         3.05548        -6.43504
LJ           0.87332         5.14515        -5.79217
LJ          -1.27716        -5.73219        -5.47596
LJ           3.53367        -5.12133        -3.18792
LJ          0.395635        -4.14259        -6.34705
LJ           2.26207        -6.04481          2.7605
LJ         -0.485931         5.09332         2.06402
LJ         -0.839516        -6.14659        -0.51968
LJ           -5.1797        -3.51563         6.25683
LJ        0.00591589        0.203724         4.45285
LJ          -4.98783          5.6819         2.24608
LJ           1.20921         4.41394        -3.21019
LJ           1.22756          5.6939         5.70231
LJ           -2.0911        -5.54647         4.26597
LJ           2.09038         3.51754         4.33809
LJ          -3.62375        -5.71248          4.3266
LJ          0.170648         -4.2944        -1.79384
LJ          0.614222        -4.83306        -1.31396
LJ           3.18848         -4.2398         3.96925
LJ           1.35083         5.86833        -2.58684
LJ          -5.75005        -3.60214         2.42001
LJ          -2.94115         5.75589         3.76685
LJ          -3.23805         1.55044          -3.981
LJ           -1.2912        0.402604          -6.228
LJ          -6.22337        -2.66434          -2.802
LJ           4.60398        0.242027         3.40493
LJ          -2.67006         3.58104        -4.92889
LJ            1.5391        -3.93113         5.92154
LJ          -5.48778         1.97749        -3.19846
LJ         -0.982675        -2.16622        0.443646
LJ           1.89668         5.91204         4.83319
LJ          -2.53573       -0.393446       -0.862296
LJ           4.62951         5.15588         3.46146
LJ           -3.3375        -2.54858          1.5257
LJ          -3.96782        -2.55428        -1.11036
LJ           6.23339        -4.07996       0.0819684
LJ           3.82726        -3.39672       -0.650615
LJ          0.446222        -3.17878        -3.14735
LJ          -3.15489        -4.80762        -5.55172
LJ          -3.05026        0.460922        -3.10274
LJ           1.65248        0.908172          1.1883
LJ          0.787655         6.34766         5.07571
LJ           -3.5756       -0.220916        -1.26417
LJ          -1.19009         1.05856        -4.41219
