108
#Comment!
LJ           5.11352         5.77532        -4.06189
LJ          -4.07491        0.284092        -3.87361
LJ          -3.79838        -1.45679       -0.621289
LJ           1.43189        -6.33633         2.32225
LJ         -0.537387        -1.67443        -3.71446
LJ           4.26181        -5.73883         4.25388
LJ          -1.06048        -2.54615         0.72984
LJ          -0.21056       -0.702274        -3.22694
LJ          -6.25326        -2.04558        -5.80497
LJ           1.51324        -2.90359        -3.77002
LJ           2.90464         6.39355         -5.9088
LJ           4.39364        -4.96242        -1.65333
LJ          -5.14162       -0.604045       -0.486406
LJ         -0.927253         3.59453        -4.06632
LJ          -1.54128         1.78349        -1.54829
LJ          -4.03654         5.80721       0.0454902
LJ          0.749887        -1.68052        -3.98065
LJ          0.484173        -1.26246        -5.69981
LJ          -1.84982       -0.625307        -2.07283
LJ            2.0802      -0.0237603       -0.815136
LJ          0.436477        -3.29161        -4.23575
LJ           1.76717        -1.66639        -5.67272
LJ            3.5767         2.05216         1.74177
LJ           6.15977     -0.00154221         2.14292
LJ          -6.26182       -0.884297         -5.9345
LJ          -4.43745       -0.636037        -5.25776
LJ          -4.69379         0.41291        -5.80588
LJ          -1.62938         2.47188        -5.69367
LJ          -6.36906         1.56796         5.70639
LJ          -6.25305         3.39016         4.61164
LJ          -1.14739         3.22545         -2.9548
LJ           1.82527        -1.66785        -4.54262
LJ           3.85951       0.0130582        -4.31051
LJ         0.0252184         3.14078         -4.9556
LJ            0.8293        -5.32077        -4.03214
LJ           3.47836        0.417811        -2.13803
LJ          -1.71379         5.67199         2.63558
LJ         -0.190149        -1.77027       -0.553112
LJ          -2.10834         4.81361         1.11653
LJ          -3.01473       -0.168862     -0.00378343
LJ           1.47929        -2.17613       -0.657386
LJ          -3.27667        -1.84522        -4.51584
LJ          -5.06965        -5.37364         1.03386
LJ         -0.604383        -3.18306      -0.0481598
LJ          0.239892        -2.53312        -1.29762
LJ          -5.72018        0.916642         1.63804
LJ            2.4501        -0.65618        -2.22554
LJ          -2.26453        -2.26674         1.20155
LJ          -5.81228        -2.23621        -3.62534
LJ          -5.25317        0.350257        -1.10156
LJ          -6.36605         2.10834         1.77416
LJ           4.89089         1.30327         3.08338
LJ           2.40193         4.62925        -5.82893
LJ          -3.17225         3.19168       -0.373217
LJ         -0.519015         2.48924        -2.05116
LJ          -0.27539        -2.53167         4.27955
LJ          -2.31968        -1.61834         5.36803
LJ           4.86913         1.02356        -2.68792
LJ          -2.90119        -3.37818        0.296917
LJ          -3.57005       -0.422713        -1.04819
LJ          -4.35058         5.18569         3.61588
LJ          -2.15825         3.88657        -4.56222
LJ           3.66049        -5.73195       -0.494687
LJ          -4.22513        0.489757       -0.493221
LJ          -3.33523         1.88495        0.744644
LJ         0.0253209         4.73146         1.26096
LJ          -2.35728        -5.82261       -0.969707
LJ           1.48364        0.903276        0.516159
LJ            2.2967        -1.05388        0.382695
LJ           1.02977          4.8887          1.8421
LJ          -0.69832        0.488927         1.45598
LJ           2.49794        -5.38343        -0.31798
LJ         -0.938741        -1.38419        0.568019
LJ          -1.33646       -0.527712         1.41849
LJ          -3.82785         1.99874         3.98705
LJ          -4.13905          -5.802        0.413348
LJ           4.96749        -5.99201         6.17237
LJ          -2.05307        -3.49552        0.876127
LJ           1.05718        -3.85066         5.38097
LJ          0.939072        -3.11885        0.749788
LJ          0.574395         4.64316         3.47424
LJ           3.82483       -0.914871        -2.31087
LJ           1.93107        -3.16898       -0.665142
LJ          0.795157        -3.39891          1.9958
LJ          -4.80124        -3.92093        -1.26569
LJ           -4.2282         1.35604        0.524044
LJ        -0.0847477         1.02386        0.821746
LJ           -1.6981        -1.10853       -0.736994
LJ          -6.08009      -0.0667618       -0.226111
LJ         -0.381516        -1.23516         3.98098
LJ         -0.968635        -2.11551          2.8216
LJ           4.57362       -0.855415        -4.61547
LJ          0.774878      -0.0956267         -1.1049
LJ           3.15238         2.09663        -1.61345
LJ            4.2618         3.11582        0.753732
LJ           2.90655        -0.19854        0.828827
LJ          -5.04147       0.0437596        0.439678
LJ          -3.20563         2.08384       -0.282673
LJ         0.0332584        -2.09597        -4.47465
LJ          -3.53467         2.76357        -1.32267
LJ          -1.23813        0.496394         2.52809
LJ             1.797        -6.35102        0.323925
LJ          0.460964       -0.438118         3.84366
LJ         -0.154675          0.3541         2.40329
LJ           3.60931        0.202933         1.37824
LJ           2.67626        0.774827          1.9095
LJ           2.87346          1.1191        -3.65081
LJ           3.61771        0.641621          2.4003
