108
#Comment!
LJ          -2.66433       -0.715187         5.01534
LJ           6.40583        -3.25187       0.0574106
LJ          -3.99251        -1.95331        0.702793
LJ           5.84383          2.6825        0.271293
LJ           -4.7094        -5.02079         6.19092
LJ           2.29329        -3.97933        -1.24339
LJ           2.57297         3.93085         -2.1892
LJ          -4.99484         3.69077         2.02158
LJ            3.2058         -4.4721       -0.351955
LJ           1.66139         3.83451        -3.20166
LJ           3.45147         6.43904        -0.37923
LJ           4.75127          5.0032         -3.9931
LJ           1.39749         2.22692        -2.12404
LJ          -4.32037        -3.76551          -4.356
LJ          -5.72371        -4.56528       0.0970397
LJ          -3.19425          5.2076       -0.872676
LJ           1.01105        -0.84281         -2.4802
LJ          -3.32714        -3.66163         4.47512
LJ          -1.37457         4.80487        -2.58007
LJ            -6.077         4.05382         4.80714
LJ          -3.71329         4.61772        -2.58258
LJ          -5.19849       -0.309049        0.120812
LJ          -2.65372         5.89951         -2.7293
LJ          -2.83135        -2.78596       -0.785878
LJ          -6.39938         3.76808        -3.55697
LJ           1.92967        -2.86418         2.84817
LJ           1.95003        0.790201         5.20029
LJ           3.96511         5.54619        -3.04956
LJ           4.22546        0.110069        -6.23483
LJ           -0.5522         4.84191         2.45419
LJ            6.3775        0.871798         3.50864
LJ          0.365691          2.9104         6.22785
LJ           -1.4386        -2.33738         1.95786
LJ           3.37889         5.47666         -4.5157
LJ          -1.01241          1.8102        -1.13414
LJ           4.60989         2.53201         2.23587
LJ           4.19581        -2.17393        0.508159
LJ          -3.14319        0.397629        -1.74555
LJ          -1.36445         5.84116          4.6584
LJ           2.51361        -5.78327        -2.77688
LJ          -4.65865         1.50603        0.626484
LJ          0.580815        -2.92862        0.105102
LJ           1.41734        -1.13259        -5.59943
LJ           1.44609         5.44415         1.39862
LJ           3.48005       -0.825381       -0.713217
LJ           1.12343        -4.96219        -1.91443
LJ         -0.471442         1.60294        -2.84793
LJ          -3.10759        0.228621        -4.63167
LJ           4.51219         4.91413       -0.201596
LJ          -2.06037        -4.88886        -5.66155
LJ          -1.68746       0.0775361        -4.20719
LJ           2.45351         2.94281        -6.07828
LJ          -2.46344         6.29012        -6.25382
LJ          -3.68286        -2.35331       -0.316672
LJ          -3.20072         1.39505        0.809298
LJ          -4.16547       0.0887895        -3.14921
LJ           5.99465         4.05699         1.03848
LJ          -6.36676       0.0193907        -6.27898
LJ           3.93325        -1.60722         5.18226
LJ            3.2781       -0.609957         1.87906
LJ          -1.19747         1.83593       -0.380882
LJ            3.8381        -1.05736        -4.89471
LJ          -3.91829         3.00157        -2.85844
LJ           4.41479         4.65865         2.26314
LJ           3.19025         1.90615        0.620147
LJ           1.32077        -1.77294        -4.22155
LJ          -3.85148          3.7611         3.69545
LJ           3.00774        -3.22528         4.68087
LJ          0.232579        -3.74859          2.9236
LJ           3.23046        -6.23592          4.1189
LJ           5.93724        -1.75721        -6.07048
LJ          -3.48194         1.70439        -6.35455
LJ           3.03586        -1.43526         3.02305
LJ         -0.438308        0.792847        -3.75159
LJ           -5.4934          2.9685         1.32732
LJ          0.170894         2.09582        -2.26165
LJ          -3.92063        -2.44828         -0.4523
LJ          -4.84237        -2.14434        -4.22899
LJ          0.898557       -0.803074         5.84479
LJ           5.28765        -5.20433        -4.73108
LJ           6.18534        0.537324        -3.29661
LJ          -3.94413         5.35569        0.212772
LJ         -0.212679        -3.08111        -1.24249
LJ          -3.12812          -4.687        -2.83336
LJ          0.684927          4.9026         4.57994
LJ           2.66053         4.21163         -4.9798
LJ          -2.72963        -2.71444        -4.94036
LJ          -3.36776         6.27179           6.352
LJ          0.249516        0.630252      -0.0592686
LJ         -0.883298         1.76722         2.94249
LJ           4.21968         5.25544         3.83222
LJ           4.70432        -1.97534        -4.09496
LJ           3.04245         1.67999         4.03795
LJ          -4.22936         5.81984        0.689326
LJ          -4.58187        -2.08967         3.29517
LJ          0.655858        -3.69125          6.1503
LJ           1.39343         -4.9622        -3.10947
LJ           4.04816         2.77698       -0.349312
LJ          -6.17695        -6.15912         3.34117
LJ          -2.29224        -1.11531        -3.20998
LJ           6.43498        -1.58784         2.93037
LJ          0.945878        -5.34034        -5.44975
LJ          -2.07264          3.8556          0.8273
LJ          -5.81505        -3.51645         -4.4225
LJ          -4.83493         0.98003         1.97676
LJ           4.56618        0.627692        -1.81651
LJ          0.479808         4.80672         2.29143
LJ           1.89174         3.14289        -1.78494
