108
#Comment!
LJ          -5.15451         -4.9292         -3.5165
LJ          -2.51775       -0.491326        -3.62158
LJ          -3.33926        -1.76565        -2.07848
LJ         -0.063855        -5.15242       -0.271707
LJ        -0.0821778        -2.97952        -3.05967
LJ           2.18326         -3.4735        -5.81927
LJ          -1.79954         -2.4451       -0.587042
LJ         -0.248935        -1.69914        -2.88181
LJ           4.19963        -2.63521        -4.46711
LJ          0.757369        -2.27081        -2.56154
LJ           2.05493        -4.95214        -4.56663
LJ           2.25085        -3.84498        -1.46199
LJ          -3.79569       -0.581952       -0.851452
LJ          -2.04642        0.532661        -3.74729
LJ          -2.36735         1.18207        -1.60837
LJ          -3.24131        -4.04717        -1.03361
LJ           0.47364       -0.869107        -2.85014
LJ         -0.189459        -1.33815        -3.85999
LJ         -0.668211       -0.818572        -1.60262
LJ           1.14462         -1.1694        -1.98863
LJ           1.35399        -1.86763        -3.48335
LJ           1.71413       -0.167833         -3.5426
LJ           2.50027        0.855708       -0.489215
LJ           4.33479       -0.568875        -0.43801
LJ          -3.88653        0.930955        -4.81424
LJ          -4.60037         1.24839        -3.50394
LJ          -3.25805        0.974988        -3.58845
LJ         -0.778407        0.754119        -3.55487
LJ          -3.86903         1.34534        -5.92979
LJ           -3.3917         1.71069        -5.02462
LJ          -2.25153         1.96316        -3.03467
LJ           0.32651        0.249741        -3.05593
LJ           1.42655       -0.150782        -1.76473
LJ          0.322423         1.86619        -3.81159
LJ         -0.338159         3.16124        -1.96265
LJ           2.54309         1.14916          -2.319
LJ          -1.75353        -5.56886        0.900216
LJ         -0.985059        -2.71837        -1.79968
LJ          -2.95523        -5.61881        0.458721
LJ          -1.79183       -0.048978      -0.0858338
LJ          0.956215        -3.02665       -0.718554
LJ          -1.57086       -0.779076        -3.31559
LJ          -3.48434        -1.75609        0.198173
LJ         -0.283024        -2.32458       -0.221078
LJ          0.330625        -1.65254        -1.46931
LJ           5.08551        -0.37507        0.546243
LJ           2.04229        -1.35357        -1.35973
LJ         -0.425316        -2.98092         1.15839
LJ          -4.11335         -1.1245        -2.66101
LJ          -2.26498        0.444624       -0.833082
LJ          -5.50763         1.43061        0.825007
LJ          -5.29503       -0.411291         0.81652
LJ          0.944084        -4.24255        -4.07844
LJ          -1.28247         2.13776       -0.824523
LJ          -1.08579        0.555927       -0.675476
LJ          0.246841        -1.22117         1.48803
LJ           6.36077        -2.11313        0.695524
LJ           3.50948        0.777711        -1.82307
LJ          -1.16218         -1.4905        -0.76173
LJ         -0.619923        -0.45359        -0.18095
LJ          -3.76181         3.12803          1.1143
LJ          -1.92853         2.84038        -2.35746
LJ          -6.30012         4.58988       -0.403795
LJ          -3.06227       -0.186603       -0.293934
LJ          -2.48794          0.6437         0.34166
LJ        -0.0763944         3.58784       -0.401325
LJ          -1.12114         3.61608       -0.508725
LJ          0.592313         1.89665        0.194154
LJ          0.649514       0.0924935       0.0976462
LJ          0.247213         4.89098        0.692189
LJ           0.39719        0.840928         1.67355
LJ           1.42941         4.06076       -0.424978
LJ          -1.63658        -1.57769         0.75791
LJ          -2.01818        -1.43237         1.79775
LJ          -2.81293        0.263799         3.51368
LJ          -3.22521        -4.07884        0.887255
LJ           1.77565        -4.88208         3.95011
LJ          -1.64657        -3.24909        0.888796
LJ          0.379504        -1.43172         3.93613
LJ          0.866024        -2.74535         1.42331
LJ          0.750314        -5.48867         2.05438
LJ           3.23006        -1.76121       -0.847191
LJ           1.63088        -2.92259        0.585294
LJ           1.71419         -3.9127         1.64271
LJ          -3.44952        -3.04806        0.284078
LJ          -4.19873        0.696243      -0.0759236
LJ          -1.44486          1.1872        0.746636
LJ          -2.65173        -0.97147        0.381329
LJ          -3.65383        0.144749         0.68515
LJ         -0.642989       -0.906655         2.66407
LJ          -2.11423        -1.32023          2.9047
LJ           2.40026        -1.11118         5.39311
LJ           1.00704        -1.65262        0.030076
LJ           2.86219         1.81006       -0.882271
LJ           2.62682         2.24652         2.12977
LJ           1.70188       -0.171824       -0.334822
LJ          -3.37715         1.20309        0.560508
LJ          -2.49087         1.78972        0.440278
LJ          -1.44033       -0.379546         4.79494
LJ          -1.68815          1.3683       -0.266938
LJ         -0.327058        0.171756        0.829802
LJ          0.822306         3.60647        0.577619
LJ         -0.195304         1.27624         3.34433
LJ         -0.264631        0.292808         2.98276
LJ           2.81877         1.33375        0.992348
LJ           2.69677        0.351018         1.66472
LJ           1.27115        0.636047         5.03475
LJ            3.3848        0.702976         3.11018
