108
#Comment!
LJ           3.05445         4.10859        -4.51608
LJ          -5.08561         0.56092        -4.31173
LJ          -5.33683       -0.704244        0.342116
LJ           2.15828         6.21622         5.09126
LJ          0.612864         -1.2909        -3.40463
LJ           5.82951         5.09102         2.34236
LJ         -0.428559        -2.33045         1.11677
LJ          0.660979      -0.0686027        -3.64699
LJ          -4.88347        -4.01438         6.44474
LJ             0.466         -3.8425        -4.86645
LJ           2.41779         4.82378        -5.47198
LJ           5.83444        -5.92387        -1.56651
LJ          -6.39697        -1.13512       -0.358125
LJ           0.30954         5.10729        -4.51526
LJ         -0.353786         3.06101        -1.80239
LJ          -4.55909         3.57048        0.987526
LJ           2.90816        -1.39395        -4.26181
LJ        -0.0153114        -1.66684         6.44368
LJ          -2.71612        -0.78458        -2.05451
LJ           3.06644      -0.0835093       0.0920733
LJ         -0.360401        -3.18577        -3.97122
LJ           1.94675         -2.9344         5.68991
LJ           4.05655         2.19828         2.50031
LJ          -4.64277         1.56852         3.58724
LJ           6.11164        0.278945         5.67846
LJ          -4.63856        -1.18787         5.80634
LJ          -5.86649        -1.04655         6.29884
LJ          -2.43333         3.78072         5.82703
LJ           4.80883          2.0261         4.86632
LJ           4.38649         4.26027         2.08844
LJ        -0.0512581         4.48036        -3.64397
LJ           2.08589        -2.92285         -5.7174
LJ           5.30028        0.844695        -6.32234
LJ         -0.974294         4.48284        -5.24124
LJ           3.33393        -3.29568        -6.14627
LJ           3.67421       -0.161432       -0.963626
LJ          -2.36398         5.15961         4.34589
LJ          0.386242        -1.47572        0.245991
LJ          -1.96761         2.87033         1.20976
LJ          -4.26605        0.343486       -0.784198
LJ           1.88268        -1.78454       -0.667051
LJ          -4.77428        -2.31716        -5.52175
LJ          -5.70953         5.21227        0.935142
LJ          -0.81734        -3.11912        0.557122
LJ         -0.101261        -2.37701       -0.226946
LJ          -5.15577         1.72639         2.39803
LJ           3.23962       -0.374648        -2.56938
LJ          -2.36665        -2.42402       -0.593696
LJ           5.89532        -3.01244        -4.41058
LJ           6.43162      -0.0769881       -0.772234
LJ          -6.18051         1.32971         2.43097
LJ           2.67746         1.85924         4.90459
LJ           3.74979         1.73187         5.61654
LJ          -4.98524         2.16457       -0.254015
LJ          -1.37031         3.41927        -2.67635
LJ         -0.853865        -2.72603         5.71973
LJ          -1.74648       -0.735775        -4.48599
LJ           6.05513         1.35844        -3.46506
LJ          -3.77034        -4.53605         1.43751
LJ          -5.59287       -0.592928       -0.953451
LJ          -4.77643        -6.18542         5.32106
LJ          -1.88414         4.40974        -5.68829
LJ            3.8789        -4.02942         -1.8197
LJ          -4.45436         1.29006       -0.167252
LJ          -3.43959         3.04711        0.509343
LJ           0.98656         5.91656          3.1274
LJ          -3.41469         -3.1616        -1.16041
LJ            2.0031         1.13862         1.25754
LJ           2.97659        -2.28682       -0.482476
LJ           2.18891         4.09447         2.18444
LJ          -1.75509         1.12112          2.1882
LJ           1.48796        -2.82482        0.449278
LJ          -1.63403        -2.29421        0.201847
LJ          -1.53354        -1.32611         1.11108
LJ          -4.60846         3.29963         4.31576
LJ          -5.08509         6.03805        0.583446
LJ          -4.63836        -6.34278        -6.43618
LJ          -1.86861        -2.76912         1.26065
LJ           1.52042        -5.59564         6.43436
LJ          0.444192        -3.54815         1.40077
LJ          0.405422         2.55007         4.03452
LJ           3.83868        -1.68709        -2.11446
LJ           1.72364        -2.56118        -1.47839
LJ        -0.0789098        -2.86029         2.03861
LJ          -5.77814        -4.42492        -2.22777
LJ          -5.47132        0.695742         1.11403
LJ          0.970952        0.945384         1.28945
LJ           -1.0396       -0.710739        -1.72954
LJ           5.30523        -0.24824       -0.555815
LJ         -0.135088        -3.00677         4.54466
LJ           1.43719        -2.90743          3.5241
LJ           5.77041      -0.0844341        -2.23254
LJ           1.44755         1.20986        -1.72093
LJ           3.19687         3.09509       -0.767085
LJ           5.47615         3.57973       -0.243399
LJ           3.47355        -1.12762         0.37482
LJ          -5.43645        0.319179      -0.0372724
LJ          -3.79132         2.72576        -0.91899
LJ         -0.371843        -2.41792        -2.96428
LJ          -4.26976         3.35094        -1.74199
LJ          -1.18362        0.134054         2.44979
LJ           2.31047        -4.17247       -0.295817
LJ           1.07259       -0.969393         4.29828
LJ          -0.27187        0.981568         1.64154
LJ           4.06259        0.295857         1.73746
LJ           3.58348         1.55423         1.87761
LJ           4.12469         0.94059        -2.64873
LJ           4.19492          1.1632         2.70973
