108
#Comment!
LJ          -1.18324        -1.20819        0.524851
LJ           1.09243         5.13839        -2.81777
LJ            2.6274        -2.53647          1.5854
LJ          -5.10711        -3.36099         2.23348
LJ           5.24132        -3.30443        -6.37818
LJ         -0.312129        -1.18146        -5.29392
LJ           3.62276       -0.948723         1.34554
LJ           1.46425        -2.38017         5.77633
LJ          0.545526         3.25996        -6.20245
LJ          -6.06721        -1.38037         4.86339
LJ           4.69159        -3.56795        -1.37304
LJ          -4.91425         2.37637        -2.75957
LJ         -0.156349         1.67148         1.62059
LJ          0.212292           2.482         3.02944
LJ          -6.17232         6.12877        -1.65665
LJ         -0.622717        -1.35872         5.14713
LJ          -3.52783         3.12977         3.84119
LJ          -6.19024        0.587036         6.35226
LJ           3.45002        -5.19415        -5.56252
LJ           1.83287         4.12685         2.48716
LJ           1.65154        -1.47482           4.843
LJ         -0.585611          1.4324        -6.18335
LJ           2.70131         1.60035        0.650098
LJ          -4.46737         5.57455        -2.69203
LJ           4.52209         5.02387         5.73346
LJ           -4.9107        -3.49303        -5.92928
LJ           4.41569         1.57538         3.63008
LJ          -3.29071         5.54724       -0.438585
LJ          -1.91862       -0.721434         1.35392
LJ          -5.14414        -5.12135          4.1701
LJ           1.79694       -0.330489       -0.481078
LJ          -3.18778        0.160283        -1.94571
LJ          -1.93258        0.131508        -5.65534
LJ          -3.29455        0.426742           4.251
LJ         -0.484518         1.48781        -2.82024
LJ          0.711487        -1.42105        -5.61757
LJ           5.41149        -1.75695         5.88995
LJ           2.11172         -4.5173        -1.68908
LJ          -3.53741          -3.862        -1.46635
LJ          -4.00317        -3.98428        -4.70934
LJ         0.0303144        -3.29946          6.3848
LJ          -6.15285         3.20066        -5.02473
LJ           2.90451        0.153375         4.41092
LJ           5.46481         6.00654        -2.71937
LJ          -3.06883         5.66819        0.224488
LJ           2.16387          3.7726        -3.96053
LJ          0.512744       -0.730145        -4.77979
LJ           3.90439          6.3286         3.50169
LJ         -0.362819        -5.46712         5.27827
LJ           4.10468        -2.30198        -4.46007
LJ          -2.72494        -5.96307        -1.26178
LJ          -4.57962         6.04685        0.904425
LJ            1.8671        -6.01659        0.966787
LJ          -4.52124       -0.447731         4.96414
LJ           3.95403         3.96531         4.01139
LJ           3.77461         5.29092         2.38207
LJ          -3.69657         1.42987         1.17705
LJ           2.36875         3.47472         6.43469
LJ            3.3899        -4.65598        0.630249
LJ           2.49519        -4.35916         -3.0486
LJ           6.10272         1.48291        -3.55522
LJ           4.39199         3.58188         4.03774
LJ          -6.40834        -3.64975         5.67262
LJ           2.51523         2.32868        -2.85898
LJ           5.47361         4.20295         1.30727
LJ         -0.296242         -5.3902        0.876933
LJ            6.4272        -2.10735        -4.34105
LJ          -5.64454        -5.56349         -4.2556
LJ          -2.53966         5.69904        -5.74897
LJ          -6.42491         1.29509        -1.89888
LJ          -3.68127       0.0362528         5.86744
LJ          -4.51555         2.66116       -0.354019
LJ          -2.54516       -0.886718       -0.850026
LJ          -4.77679        -5.49353        -6.10601
LJ         -0.271578        -1.27105        -2.36436
LJ          -4.59439        -2.98909         -5.9334
LJ            2.7086         2.70912          1.0571
LJ          -3.58693        -2.10687        -4.78428
LJ          -5.60822         5.36699         4.35709
LJ           5.75463        -1.50483         1.99892
LJ           3.41242        -1.65746           4.016
LJ           5.69232         2.03486         2.52441
LJ           3.19041         4.81524        -3.87522
LJ           1.46061        -4.32899         2.10216
LJ           6.23958         4.43215       -0.830101
LJ          -2.32283         -6.4041        -1.12887
LJ           2.68788        -1.16617        -1.35635
LJ          -2.45095        -2.19872        -1.58388
LJ          -1.22515         5.08454        -5.22572
LJ           2.23802         3.38091        -5.38136
LJ           5.77211        -5.58012         2.36454
LJ          -2.44778        -3.51909         5.33579
LJ           4.19149        -2.70893         2.39688
LJ         -0.369949        -6.43974          5.6616
LJ          0.262572         3.80462         4.87794
LJ          -6.37774         4.55755        -2.86508
LJ           5.37885        -1.27346         3.43719
LJ          -2.88445        0.973004        0.503894
LJ           4.63971        0.161857         4.50436
LJ           4.04281         3.06667         4.53009
LJ           1.49017        -3.95819         2.67273
LJ         -0.788549        -3.66837        -2.93075
LJ           3.61743         -3.9353        -3.28635
LJ           -4.1353        -4.68892         4.50414
LJ          -2.00265        -2.65686         4.48306
LJ          0.324065        -4.43824          2.3066
LJ          -2.66103         4.85605        -5.75213
LJ           4.77937         3.49347         1.99139
