108
#Comment!
LJ          -3.80321        -4.26732        -1.61081
LJ          -3.55283        0.361732         1.34768
LJ           3.87035        -2.72617        -4.67865
LJ          -2.23113        -4.51464          5.1204
LJ            4.6337        -4.07862        -3.88843
LJ          -2.68639        0.550204          3.9242
LJ           3.74221        -3.10165        -2.04565
LJ          -4.63555        -2.54738       -0.166177
LJ          -5.05616        -2.83773        0.633476
LJ           5.52177        -3.12837        -2.32322
LJ          -1.41828        0.120551        -5.05091
LJ           4.95744         3.20801         -3.8925
LJ          -5.75269         1.89416         1.69844
LJ           2.48251         0.68522       -0.919129
LJ          -5.19051       -0.217657        -5.52834
LJ           1.60133         3.70632         2.51909
LJ            4.1483         4.57033         5.79703
LJ          -5.10332        -4.00334         1.18311
LJ            3.8835         4.86859        -4.03642
LJ          -3.03816         3.27536       -0.580994
LJ          -1.21586       -0.337494        -4.61438
LJ           -5.1414        -1.20917         5.43662
LJ           -2.0251        0.644097          3.4836
LJ           2.81861        -3.55299         2.58761
LJ          -1.67909        -6.16582        -4.52781
LJ          -2.39591        -1.61883        -2.32464
LJ         -0.351288         6.38247         3.13093
LJ           5.69905         6.42181         5.77721
LJ          -1.84479        -3.41331         3.69089
LJ          -2.94263        -4.65362        0.477381
LJ           2.97038         2.56952        -5.99265
LJ           4.60742        -4.80423         3.35233
LJ          -3.50976         -2.8963        -6.45233
LJ          -4.20449        -4.76667         4.51487
LJ          -3.52075        -5.38006        -4.79017
LJ          0.353133         -1.9835         4.63815
LJ          -5.98063         4.47219        -4.56799
LJ          -2.61926       -0.660722        -5.58638
LJ           6.36808          2.6781         6.38426
LJ          -6.32246        -4.88005         4.65232
LJ           5.91857         2.35122         3.22994
LJ          -3.48607        0.175371        0.284462
LJ           1.62816       -0.959938         6.39881
LJ            1.0282         6.43013        -1.57551
LJ         -0.498494        0.492813         6.18589
LJ           6.07445        -1.33758          3.8061
LJ          -2.45213        -5.62376         2.98016
LJ        -0.0468918        -5.48656         1.42728
LJ           5.80884        -5.31527       -0.867772
LJ           -3.7139        -1.30488        -5.94142
LJ          -4.68392           5.113        -5.16883
LJ          -3.87451         6.31865          5.8448
LJ           4.99983         4.94645        -1.62831
LJ          -2.73466        -1.81506        -2.44151
LJ           1.08268         1.54329        -1.60584
LJ          -1.13614        -6.34942         -5.4171
LJ            1.5648        -5.98845       -0.921656
LJ          -4.15166        -3.48276         2.27186
LJ           3.58132        -2.84586        -1.61234
LJ           1.52109         2.86767        -3.85804
LJ           5.11395        -2.05071        0.662125
LJ           1.08415        -4.32246         1.13044
LJ           5.63192         -2.6414        -2.82809
LJ           3.01102       -0.499226        -5.66301
LJ           4.97203       -0.338277         2.32792
LJ          -6.17165        -6.24438        -4.24035
LJ           4.10056        -3.71719        -2.75559
LJ          -4.89421        -5.44307         5.82273
LJ           6.41998         4.63889         3.66159
LJ          0.113415       0.0752144        0.435465
LJ          0.652168         1.09136         2.31419
LJ             -3.79        -4.79847         5.53717
LJ          -0.49805         2.18509        -3.45795
LJ          -5.95677          6.3533        -4.59904
LJ           3.37334           5.423         4.27407
LJ           5.49428        -4.30924         2.69996
LJ           1.59457        -6.42286        0.160819
LJ           4.12923         4.05103        -6.39855
LJ           4.09711        -1.82917         5.46052
LJ             2.873      0.00249305        -2.56598
LJ          -2.32197         -1.0167       -0.866304
LJ           1.01361         2.13574         4.12644
LJ         -0.726144        -3.14662         6.32198
LJ         0.0520584         3.04509        -5.14007
LJ           6.41991         5.81853        -5.97009
LJ           3.28464        -5.78934       0.0627365
LJ          -6.12599         -1.9786        -1.73326
LJ          0.946096        -6.37682         -1.8871
LJ          -4.01231        -1.25813         4.46284
LJ           4.63426         2.89254      -0.0614927
LJ          -5.96612         2.99162        -4.94398
LJ          -4.36545         3.74866        -2.41776
LJ           4.46125        -5.70042         -3.7358
LJ          -6.14198          4.3511          1.6281
LJ          0.643669        -2.40539        -6.45835
LJ          -2.26426        -3.85876        -2.50329
LJ          -1.43266         6.19034         6.01791
LJ           5.57493         4.32851        0.976942
LJ          -5.03484       -0.830073          1.8192
LJ          -3.32163         3.76163         1.24532
LJ          0.422097       -0.202113         2.15282
LJ           5.35224         3.24453         2.02681
LJ           6.00442         5.90447         2.44775
LJ           2.43954        -2.16136        -4.19119
LJ            5.3834        -6.29191        -4.70497
LJ          0.464696         5.27291        0.603147
LJ           5.01539         1.55566        0.110781
LJ           4.61805       -0.645278         1.13843
