108
#Comment!
LJ          -1.68291         4.95679       -0.912975
LJ           5.64573         1.69838        -4.01329
LJ          -0.96696       0.0757325        -5.88901
LJ           5.37423        -4.43506        -3.53823
LJ          -1.28881         1.61035        0.722636
LJ          0.654004        -2.83571        -1.00776
LJ         -0.284183        -2.60261         4.04554
LJ             4.241         6.15207        -1.71647
LJ          -4.50679        0.838247         1.67255
LJ           1.92318        -2.04465        -5.43881
LJ           -6.2101        -1.72504         3.38447
LJ          0.278685         5.07327        -3.67088
LJ          -3.44547         1.29405         5.54765
LJ          -2.87147          4.5006        -4.79349
LJ          -5.00153        -2.33467        0.959645
LJ           6.44869         4.15726         1.58563
LJ           1.81144         2.38836         -3.1041
LJ           1.36532         5.50329        0.828648
LJ             -5.95        -2.92887         3.45147
LJ           5.49505        -2.06702       -0.683195
LJ          -3.25506         4.48025         5.21623
LJ          -6.02931         6.08992        -5.00262
LJ           3.36158       -0.999559          6.3006
LJ           5.08363        -6.09186         1.70802
LJ           6.43695         6.38728         4.22405
LJ          -2.27129         2.69931         5.91779
LJ          -4.30507         1.77792        -2.81304
LJ         -0.950329        -4.63026        0.533156
LJ           1.13404       -0.957803        -2.33427
LJ          -4.62412        -3.58372        -2.60397
LJ         -0.298604         5.27873       0.0467536
LJ           3.88848         4.66527        -2.40057
LJ          -5.95429         2.89422         2.91509
LJ          -2.34105         5.38694        -5.28176
LJ          -5.78488         4.59761        -4.26032
LJ           4.13973        -3.26441         4.44344
LJ           6.06417         3.78292        -3.44934
LJ          0.947803         4.26649         3.04733
LJ          0.343779       -0.801914        -1.51412
LJ          -4.16036          1.5003        -3.76825
LJ           1.97898         3.37572         2.58409
LJ           2.95261         -4.5127        -3.84885
LJ          -2.92114         4.19247         2.62868
LJ           2.89628        0.582875        0.942296
LJ          -1.52353         -4.2213         4.27444
LJ          -2.94608        -1.57757         5.57767
LJ          -6.24239        0.719561       -0.795311
LJ            3.8007         2.87053        -5.95818
LJ          -3.97705        -2.60765         1.96726
LJ          -2.20463         6.01465        -2.14363
LJ         -0.437075         4.73357        -4.39469
LJ           3.81915       -0.732362         1.41912
LJ           1.31427         5.45059        -2.70382
LJ          -2.87485        -3.15783         -1.0866
LJ           5.00904        -2.65504        -3.71841
LJ           5.94441        -3.03002          4.4251
LJ          0.147175         3.98954        -2.47888
LJ          -3.74477        -5.11168         5.94225
LJ          -3.97504         5.33195        -1.40211
LJ           4.14858        -5.14751         -6.3353
LJ           6.28359         3.43125        0.341979
LJ           1.06969         4.72334         3.75332
LJ           -6.0522        -1.66732        -1.36868
LJ           4.91581        0.135698        -5.79639
LJ           1.73629        -5.40641       -0.111432
LJ          -6.24495         2.71327        -2.04406
LJ          -4.69251          4.6572        -1.39095
LJ          -4.46936        0.604628        -6.04438
LJ         -0.770124         5.93458         -2.2026
LJ           2.19939         1.66496        -2.88459
LJ           5.07194        0.715013        0.190755
LJ           1.49181        -3.96445        -1.70519
LJ           3.59766        -0.81224         5.63426
LJ          -6.40143        -2.59423          4.9586
LJ           3.88681        0.157189           4.254
LJ           2.44186         2.83352         3.11459
LJ          -4.84712          1.5527         4.97641
LJ           3.89306         1.49073        -1.00507
LJ            -2.717        0.353259       -0.381239
LJ           1.96404        0.250388       -0.684229
LJ           1.39867        -3.07762         5.57551
LJ          0.242955         2.30805         -4.9023
LJ         -0.638283         1.39081          2.2248
LJ           4.26521           1.902        -5.92822
LJ          -5.04188        0.241275        -1.88404
LJ           5.18713        -6.30356         4.10455
LJ          -3.43616         1.90149         2.21726
LJ           2.06431          3.2746        -1.14667
LJ         -0.111845        -5.54698       0.0604522
LJ          -2.65128       -0.955012         3.82294
LJ          0.178714         5.05351         5.37738
LJ           6.44623        -2.51835         3.87232
LJ          -1.06778        -2.11153        -2.39719
LJ           2.20984         1.73344        -1.84075
LJ          -0.46433        -1.18772        -3.46689
LJ           2.06268         5.60087         1.18331
LJ          -5.61762       -0.963023        -3.66362
LJ           3.91812         4.08158         2.09876
LJ          -5.62279         5.68184       -0.915128
LJ           4.01164       -0.135314        -6.34393
LJ          -1.42559        0.444997         1.76408
LJ          -4.40176       -0.531369        -5.57433
LJ          -1.76735        -2.45563        -3.47511
LJ            3.7736         -5.1432          -1.782
LJ          -0.87404        0.657087        -2.12485
LJ           1.45233         2.59472        0.388586
LJ          -2.43481         4.33185       -0.517586
LJ           2.42663        -5.09403        -4.43053
