108
#Comment!
LJ          -3.37795        -4.15988        -2.73062
LJ           3.63755         0.24468        -5.57462
LJ           4.10931        -3.74517         2.49226
LJ           2.21627       -0.320929        0.138504
LJ          -4.38458         4.42822        -5.95008
LJ           3.00962         5.35706         5.22594
LJ           3.07361        -1.81711         3.89109
LJ          -4.28853         1.16872         5.93282
LJ           3.16565        -3.35335         3.42948
LJ         -0.172291        0.749906         6.21663
LJ           5.90423        0.979008        -1.95567
LJ           6.40444         2.46324        -1.58593
LJ           5.55217         -3.4666        -3.20955
LJ           2.34581         2.91488        -1.32479
LJ          -6.39544        -4.56983         3.72093
LJ          -6.30415         2.88711         5.90095
LJ          -6.12678         1.25936        -6.24558
LJ           3.97892        -3.15342       -0.980551
LJ           6.06473         2.47044        -2.44464
LJ           1.32662       -0.280782         -3.7822
LJ           3.72106         5.80524        -6.34043
LJ           4.62128        -2.48426         1.20852
LJ         0.0415104         2.65081         3.52484
LJ           4.78483         2.40949         3.93034
LJ          -5.73243        -5.31729       -0.390797
LJ           4.64794        -2.91207       0.0342594
LJ          -5.25209         3.97782        -1.43236
LJ           3.90597        -2.55527         1.42312
LJ           3.56054         1.53104         -5.3275
LJ           1.52457          -3.823         1.31039
LJ          0.274625         6.18282         5.82383
LJ          -4.87819         5.00654         -5.3622
LJ          -5.33761         -1.1208        -5.60758
LJ          -1.23304        -1.27153         3.66348
LJ          -4.13363         2.06537         4.49506
LJ          -2.57981         4.41377        -5.99775
LJ         -0.408963        -5.04295        0.931063
LJ          0.168789         2.07664        -3.57087
LJ           2.01905         2.49031         4.15127
LJ          -1.97207        -3.05911       -0.532528
LJ          -3.48512         2.73541        0.511397
LJ            4.4664        -1.81424         5.71233
LJ           3.21695        -3.59838         -2.5489
LJ            5.2617        -1.85779        -5.69652
LJ           2.75744       -0.256153        -4.54534
LJ          -3.86852         1.72319          3.8922
LJ          -4.21774         1.45452         5.01902
LJ           4.79011        -1.10526        -4.15334
LJ          -1.84865        -4.89288         1.02383
LJ          -4.79596          3.9932        -2.01204
LJ          -3.57372        -5.29447          4.5314
LJ          -3.20294      -0.0222896         4.11901
LJ          -4.75238         3.36567        -1.07455
LJ          -6.36547         3.78146        -6.21398
LJ           2.73591         3.94926         4.01707
LJ           6.43537        -1.80767         1.14857
LJ          -5.36506        -5.09334         1.67481
LJ           2.26984         2.35619         1.14797
LJ          -4.75938         -3.5845         3.48904
LJ          -1.69595        -4.63197        -4.73997
LJ          -5.73911       -0.533485        -2.84525
LJ         -0.166061         4.99105        -4.37571
LJ           6.37657         -2.3791       -0.436308
LJ         -0.856047        -3.16633         5.19265
LJ           1.69393         1.52011        -2.10624
LJ           4.13907         2.10172        -1.95506
LJ           1.10912         3.87688        -5.74545
LJ           2.50975        -3.92101        -5.66677
LJ            4.3061        -2.96889        -1.98842
LJ           6.25632       -0.249826        -3.94499
LJ          -6.21854       -0.762155        -3.41228
LJ          -5.44822         5.96939          1.9611
LJ           5.36589         6.26149         3.51874
LJ          -3.12107         1.93311       0.0696057
LJ          -2.51229        -5.62902         6.08126
LJ            1.6991        -4.43969          4.9956
LJ           3.64574        0.212974        -5.55809
LJ          -1.83998        -6.38207         5.36519
LJ           2.25471        -5.17383       -0.434414
LJ           5.71625        -1.19178        0.476303
LJ          -5.76119         4.57338          2.8602
LJ          -4.58811        -2.68404         3.68021
LJ           -1.8323         4.78342         2.38986
LJ          -3.80606         6.22304        -3.04759
LJ          -2.80356        -4.03874         1.30111
LJ         -0.696244         5.53312         -5.4012
LJ          -4.59134          -4.798          3.4769
LJ           5.03628         4.55615         6.42173
LJ           2.57973        -3.85124        -3.08601
LJ         -0.451582         2.78233        0.426326
LJ           5.09376         6.42585         6.22676
LJ           2.57722         1.40981         -4.3016
LJ          -4.88543         6.26626         4.19606
LJ           1.72778       -0.456896        -1.63004
LJ           3.90818         2.11921         4.04335
LJ          -3.41732       -0.141582        -1.67082
LJ           1.72471        -3.01647         2.70909
LJ           2.75167        -3.65094         4.16132
LJ          -4.08283         6.36024         6.41654
LJ          -3.35551        -2.72255        -6.27974
LJ           -6.2062        0.232111          1.1683
LJ          -2.94675         -4.2395       -0.981784
LJ          0.214147        -1.15593         2.22985
LJ           3.75765       0.0312991         -3.8102
LJ           1.57758       -0.635246         3.54484
LJ            1.7081         1.36013        -3.06023
LJ          -2.58243        -2.52772         3.94827
LJ          -1.83041        -5.54189         6.36974
