108
#Comment!
LJ           1.03585        0.565899         -2.3495
LJ           4.24668        -1.03144         4.55632
LJ           3.95731         0.74098       0.0877314
LJ           4.47703         2.16565        0.194282
LJ          -4.55705        -6.06622        -4.45146
LJ           4.14161         3.06253        0.825524
LJ           -2.9922       -0.444886         3.69583
LJ           4.13439        -1.79485        -4.04426
LJ          -2.77229          3.1527         2.35443
LJ          -3.54986       -0.645041        -5.84232
LJ          -1.96353        0.722636        -5.40879
LJ          -3.34848           3.983        0.878619
LJ           1.38922        -5.95272        -0.61289
LJ          -3.41442          -2.767        -1.08662
LJ          -1.63309          2.0637        -5.12192
LJ          -0.81422        -2.24441         3.34898
LJ          -1.23627        -2.86133        -6.33566
LJ          -0.59958         6.05683        -5.43872
LJ          -2.28805        -2.79174         -5.1473
LJ           -4.2752          6.2489         6.18344
LJ          -2.37528        0.700056        0.261648
LJ           3.63235         5.79105         1.00007
LJ           6.02899          1.3229         6.15403
LJ            1.1109        -3.62299         1.91661
LJ          -3.45844         -1.3939         -0.0895
LJ           6.40712         6.37005       -0.567381
LJ          -5.65534        -5.75559       -0.249495
LJ          -4.75751       -0.524046        -5.52126
LJ          0.628145         4.99201         1.32283
LJ           1.14451       -0.498758         3.38787
LJ           1.62603         4.48659         -4.3925
LJ           3.07094         5.96028        0.140755
LJ            5.0859       -0.124724         4.61646
LJ            3.3386        -2.80581        -2.52667
LJ           5.29936         4.34284         1.96064
LJ          0.142085        -1.34002        -3.43464
LJ          -3.67554        -6.38791         5.03519
LJ          -3.58332      -0.0234179          1.9207
LJ          -1.25881        -0.32067           5.152
LJ          -5.49807         4.62633        -1.03288
LJ           5.64788        -2.73666        -2.41743
LJ           1.53564        -4.41998         4.29458
LJ         -0.274707        -1.91411        -1.35826
LJ          -2.68332       -0.733162         2.35036
LJ           3.93276         2.93916         5.16063
LJ           6.00312        0.727512        0.520725
LJ          -5.03102          -3.293        -2.85309
LJ          -3.52104        -1.30862         6.08471
LJ           3.46886        -1.53523         5.05756
LJ           4.74555        0.336493         -3.6925
LJ          -2.12471        -3.36042        0.559827
LJ           -2.6251         5.89445        -3.27385
LJ           -4.0771         6.44202        -2.65062
LJ           3.57508         4.77484        0.343475
LJ           1.78313         5.58883         -2.1889
LJ           -2.9554         6.21742         5.86613
LJ           4.75356         3.04307        -3.32148
LJ          -4.37545         4.38545         -2.5828
LJ           4.18817        -5.66872        0.735075
LJ          -2.72007        -5.37976       -0.585821
LJ          -2.71433       -0.197288        -6.33557
LJ          -2.83585         4.20704         2.08936
LJ          -5.75281          5.6977         -6.1231
LJ           4.71446         5.98542         1.04558
LJ           6.00104         6.25876         1.60523
LJ           3.32885         6.26813         -1.6276
LJ           4.24904        -3.74946      -0.0658695
LJ           1.72231         2.70743        -5.12233
LJ           5.37173        -1.73293        -2.63562
LJ           2.54439          3.4294         2.39208
LJ          -1.19444         1.30962         1.38738
LJ          -3.06819        -1.13958         1.31843
LJ          -5.55402         -4.5967        -2.75123
LJ          -2.32829        -3.72016         5.22708
LJ          -5.02725        -3.74153        -4.21566
LJ           1.69562        -2.18513        0.243416
LJ           3.75544         1.31391         5.10053
LJ          -1.92227        -1.96388         4.19758
LJ          -5.70323         6.45948        -3.98139
LJ          -2.80464        -3.92882        -6.38089
LJ          0.572671       -0.659056        -5.61972
LJ           4.03219        -1.89972        -2.67775
LJ           3.44824        0.254459       -0.733579
LJ          -2.13153       -0.977157         4.56239
LJ            1.4595         5.15577        -5.76097
LJ          -3.87998       -0.646978        0.833473
LJ          -1.40192          1.4006         2.45864
LJ            -4.439          4.8335        -5.86497
LJ           3.43303        -1.96596        -1.60206
LJ           2.08511         5.76552        0.169963
LJ          -5.61504         4.44707          4.3401
LJ           5.90568       -0.298038        -2.31047
LJ          -5.96024         4.81818        -4.37126
LJ           1.86959         1.36628        0.203024
LJ          -4.75524        -6.02533        -3.34598
LJ           4.56969        -2.14855        -1.82893
LJ          -3.31937        -1.35941         3.34866
LJ          -1.09259        -5.56428         4.90273
LJ           -1.0081        -4.11224        -4.70072
LJ           6.27309         4.33202        -1.11942
LJ          -1.42927       0.0671994          1.3198
LJ           2.40964        0.277386        -0.44428
LJ           3.61191        0.773427        -4.21055
LJ         -0.905499        0.731213        0.517827
LJ          -6.28256         2.66883          1.7434
LJ           4.25926         4.01704         1.39389
LJ          -3.24762        -3.20752        -2.37914
LJ           -5.8388         1.48708         6.10347
