108
#Comment!
LJ          -5.06068        0.172391         -6.0161
LJ          -1.31438        -3.05216         4.78153
LJ           3.86364         3.34008        -6.43116
LJ          -6.41353         2.02706        -4.35003
LJ           4.93078         6.08586         2.10356
LJ          -1.19541         5.25744        0.440738
LJ          -1.35845        -5.06327          4.0237
LJ          -2.86908        -6.22235        -2.23906
LJ           2.97637        -3.22653           3.484
LJ           -5.8062       -0.607142        -5.59265
LJ           -2.3347         4.99013         4.76161
LJ          -5.43726         4.11658        -4.36463
LJ           6.39654        -5.07746       -0.924577
LJ          -3.28384         -2.0478         3.65144
LJ            4.8929       -0.166639         5.96109
LJ            5.5968       -0.844875        -3.21689
LJ           4.56841         1.47227        -5.15955
LJ           1.45917         -1.2721        -4.48078
LJ           6.24081        -3.52528        -1.24076
LJ           4.72216       -0.948895        -5.44286
LJ          -4.40199        0.184721         5.78423
LJ          -5.56181         2.11714         3.42323
LJ          -2.84114        -2.95379        -2.65125
LJ           5.73389        -1.86632        -2.87606
LJ          -2.05367         3.39655        -3.08085
LJ           4.99732        -3.01154        -5.96331
LJ          -6.31575         5.76794        -4.20409
LJ          0.123555         6.10085         6.19474
LJ          -5.74137         5.55974       -0.945964
LJ           1.00373         6.34117        -5.08367
LJ           4.36519         5.24364        -6.29508
LJ          -1.10733       0.0758538         3.63203
LJ          -6.07395          3.3606        -4.54355
LJ           6.19706         -4.8533          5.8262
LJ           5.11476        -5.76246         4.97622
LJ          -2.68649         3.33847         1.33011
LJ           4.95921          5.4776        -3.07338
LJ           5.82873        0.547835         4.02386
LJ            3.5831        -6.03445        -1.25882
LJ          -5.42997        -2.11736        -5.65833
LJ          -3.15472        -3.53762        -4.97816
LJ          -5.61884        -1.64798        -2.92105
LJ          -5.80449        -4.40068          1.3163
LJ           4.60084         3.22811       -0.731785
LJ          -2.46088        -5.64797        -5.05464
LJ           4.70893         5.71081         1.70191
LJ          -5.74425       -0.257163         2.27452
LJ          -2.36066         2.15752         3.09043
LJ          -2.61808         2.48959         4.13381
LJ            1.0171        -2.69234        -1.42176
LJ          -3.30726        -2.48918        -4.44885
LJ          -2.86218         4.14456         4.36013
LJ          -4.02559         5.96674        0.885823
LJ            4.3179        -6.13491        -5.36643
LJ           5.42868        -2.65808         4.49521
LJ           6.21147         5.74342         1.08027
LJ           1.52832        -1.86853           -3.31
LJ         -0.224815         5.53037         -1.1564
LJ           4.69198        -3.48502        0.622269
LJ           2.31165         1.82875         -4.9056
LJ           6.01673        -5.41329           2.318
LJ          -3.65601         -5.1076        -1.16617
LJ            4.4712        -2.97188           2.175
LJ          -4.08426        -2.86274         1.33619
LJ          -4.37858         3.82865         6.31619
LJ          -1.09067         5.04476        0.609075
LJ          -4.52943        0.432085         -2.0046
LJ           5.50674         1.32709         3.54468
LJ           2.54089         5.06334        -3.68246
LJ           5.16844         4.43366       0.0177234
LJ          -4.64155        0.138031        -1.15223
LJ           4.86603         6.27583         6.32633
LJ           4.56398          2.1523        -2.83913
LJ            6.1254        -0.72913         4.74227
LJ         -0.908503       -0.585944         4.09201
LJ         -0.348968        0.534108         3.99316
LJ          -3.68776         5.07957         1.74364
LJ            4.1567         3.96576         1.25092
LJ           -5.4226        -2.63336         -1.8724
LJ          -1.07229       -0.309371         6.31578
LJ           5.04529        -6.28561        -4.91555
LJ          -2.10622         5.79441         4.00249
LJ           2.65843        -3.83129        0.179685
LJ          -6.19872         0.51934        -5.13694
LJ           5.85444         4.74078         3.80785
LJ            2.1106       -0.777573         3.08943
LJ          0.995801         1.47513        0.952385
LJ           6.18859         6.34001       -0.248867
LJ          -5.99739        -1.49527         5.23345
LJ           4.32066         3.21665         6.31685
LJ          -5.18229        -1.47109        -6.21313
LJ          -6.36324        -3.83336         2.40819
LJ           5.95935         3.59165       -0.191015
LJ          -6.07397         6.27966           4.547
LJ          0.211718       -0.547152        -1.53434
LJ         -0.683115        -3.52784         6.11275
LJ           5.26217         2.81615        -2.39494
LJ          -3.49959        -2.04877        -6.25233
LJ          -5.11037       -0.761771        -1.75102
LJ          -3.76192         3.64456        -6.45087
LJ           2.57478         5.57179         4.11995
LJ         -0.168097        -1.08434         5.61797
LJ          -4.72262        -5.44402       -0.978951
LJ           1.95187        -1.83553         3.67062
LJ          -1.79813         4.57665         4.31982
LJ          0.525233         2.79752          6.3081
LJ           3.59877         1.67419         4.88486
LJ           -3.7979        -3.02496          1.0761
