108
#Comment!
LJ          -2.01931         3.32032        -2.90357
LJ          0.639941        -4.52263        -4.41564
LJ           4.38231         1.29079          1.8491
LJ         -0.664921         3.72818         6.34394
LJ           4.79104         5.16031       0.0353571
LJ          -2.71072         -1.1214         3.36585
LJ        -0.0491164         3.62366        -5.62755
LJ          -4.46806        -3.32755         1.29407
LJ           -1.6825         4.37372         1.38909
LJ          -3.78094         4.25921        -3.29376
LJ          -4.89324        -3.33323        0.100298
LJ           2.27083         5.42143        -2.55796
LJ           5.30493        -4.87747         4.27344
LJ          0.819864          1.5766         4.48827
LJ          -2.60894         3.02501         1.12001
LJ           2.83994          1.1266        -5.04953
LJ          -2.98979        -1.97086        -3.67356
LJ         -0.695217          0.3495       -0.872141
LJ          -3.02604         1.91927        -3.76774
LJ           5.89704         6.20139         6.32391
LJ          -2.96681        -2.45423        -3.05059
LJ           2.73807        0.126117         6.31954
LJ           -4.3559         3.35304         1.48344
LJ          -4.55677         1.98605        -2.24211
LJ          -3.02648         2.54919        -3.70788
LJ          0.838531         -5.5543         6.30271
LJ          -4.17143        0.110115        -5.09672
LJ           2.64804         5.84004         4.59375
LJ           5.88253        -5.91911          4.1385
LJ          -6.35384         -4.5774         2.30312
LJ         -0.867021         5.01857         1.95349
LJ           -3.3251         5.70656        -5.49272
LJ          -5.97505         1.60132         2.92858
LJ           4.94406         3.74914         4.45597
LJ           4.45973         3.50647        0.628423
LJ            2.9878        -4.22129        -4.29665
LJ          -4.68087        0.773577      -0.0188825
LJ         -0.450627         3.50461        -5.10702
LJ           -1.6985         4.39056         3.58482
LJ          0.876295        -6.23593         2.59382
LJ          -4.17614         3.00177         1.09763
LJ          -3.39169          1.9718        -1.77098
LJ          -4.38936        0.145386        -6.21125
LJ           4.12261         1.42918         1.40159
LJ          -4.82412         4.90814         5.72836
LJ          -1.72028        -5.15484       -0.619154
LJ          -4.74309         2.60446      -0.0306075
LJ          0.165596         3.84425        -5.02507
LJ          -2.66929         4.05545         5.82043
LJ          -1.08077         1.77943         4.45458
LJ            1.0132        -3.18669        0.927986
LJ           -3.1916        -3.46463         3.73466
LJ           1.60738         4.85683        -1.38574
LJ           -1.0149         5.48795         5.63004
LJ            5.5789         2.31379       -0.860258
LJ          -5.85737        -4.45038         4.05299
LJ          0.215173         6.32938        0.829327
LJ          -4.07155         3.38033        -3.86549
LJ           -3.3532          3.4546         4.55477
LJ           3.77174        -3.83162        -4.79573
LJ           3.32916        -2.74934         2.46423
LJ           4.98871          2.3699       -0.560192
LJ          -5.28302         1.65817        -3.80377
LJ          -0.64978          -6.292        -1.45583
LJ           1.41628         5.56729        -5.64933
LJ           4.03234        -4.32339        0.745592
LJ          -2.50096        0.544698        -5.22373
LJ          -1.94828        -2.79059        -4.36182
LJ           3.40487        -1.22056        -6.11913
LJ          -1.32465        -3.34439         4.37783
LJ           4.39924        -3.01623         1.54334
LJ           -2.4287         1.05696         6.02489
LJ          -6.20141        -3.09169        -1.60813
LJ          -2.38465        -1.09371        -5.60336
LJ          -4.15795       -0.227677         5.06222
LJ          -4.47939         1.32995        -4.10793
LJ         -0.751946        -5.91564        0.954114
LJ          -3.97002         2.07896         6.37874
LJ          -1.53452       0.0658838        -4.93794
LJ           1.17659         4.57815         2.98275
LJ           2.39933          5.8701         3.76377
LJ         -0.226059         4.43956        -1.43581
LJ          -4.52354         4.74854        0.469888
LJ           -3.9409        -4.08748        0.158226
LJ           1.39878         -3.8508        -6.14564
LJ          -1.74243         2.34503        -4.11224
LJ           4.03402        -5.46325        -1.76846
LJ            -4.044        -5.21216        -4.72385
LJ          -2.79086         -5.3918        -3.35849
LJ           0.65538         6.05075        -5.42306
LJ          0.889782         1.48443        -1.43327
LJ            -4.542        -5.01311        -2.30081
LJ           -3.6828         4.50846          2.0585
LJ          -5.13396        -2.60183        -2.79927
LJ           4.54414        -6.06418        -3.23019
LJ           5.07885         2.29187          5.2917
LJ          -3.08643        -2.49319        -3.95162
LJ           3.45229       -0.831854        -6.40165
LJ          -1.09632          2.8156        -4.96044
LJ           5.25203          1.8703        0.558534
LJ          -5.82549         3.02759         2.32502
LJ           5.49237        -4.73269       0.0454194
LJ          -4.43591         -2.9971        0.145103
LJ         -0.912836        -3.17252         4.85645
LJ           6.01121        -3.70609       0.0535853
LJ           1.93277         1.93973         4.14301
LJ           6.03762          3.1386         1.87156
LJ            2.1698        -5.18188        -1.24605
