108
#Comment!
LJ           6.17772        -6.26299        -3.84393
LJ          -3.56372       0.0476371        -3.78378
LJ          -3.35851        -1.81597        -1.06518
LJ          0.933033        -6.00503         1.04045
LJ         -0.255384        -2.31847         -3.3999
LJ           3.44242        -4.69874         5.33929
LJ          -1.66993        -2.29892        0.243725
LJ         -0.376913        -1.00249        -2.92663
LJ           5.70517        -2.16937        -5.28448
LJ           1.08738        -2.50811        -3.00602
LJ           2.98663        -5.81423        -5.84675
LJ           3.54745        -4.51271        -1.59163
LJ          -4.53427       -0.386735       -0.630534
LJ          -1.48506         2.43738        -3.87783
LJ          -1.92536         1.56128        -1.79687
LJ          -3.73922        -5.82632       -0.453702
LJ          0.594764        -1.62619        -3.44291
LJ          0.400911          -1.246        -5.03034
LJ          -1.40134       -0.585585        -1.93353
LJ            1.5674       -0.398532        -1.44445
LJ          0.773227        -2.95217        -4.05925
LJ           1.86757        -1.01641        -4.88234
LJ           3.10141         1.80429        0.689534
LJ           5.27734       -0.407511         1.08292
LJ          -5.35809       -0.333274        -5.42066
LJ          -4.54478       0.0792222        -4.34473
LJ          -4.03547        0.686855        -5.15469
LJ           -1.1705         1.78678         -4.9915
LJ          -5.44559         1.34396         6.14155
LJ          -5.04737         2.90009         5.94888
LJ          -1.63909         2.48125        -2.78667
LJ           1.36496       -0.758977        -3.74843
LJ           2.99527       -0.380491        -3.30448
LJ          0.173664         2.57131        -4.51863
LJ          0.367195         5.83172        -3.20805
LJ           3.12155        0.300733        -2.09976
LJ          -1.30398         5.89417         1.70055
LJ          -0.54258        -2.18095        -1.12119
LJ          -2.25173         5.85424         1.06309
LJ          -2.69623      -0.0322459       0.0912854
LJ           1.11213        -2.49276       -0.377012
LJ          -2.55882        -1.49902        -4.05703
LJ          -4.53521        -3.85562        0.951201
LJ         -0.225759        -2.87283      -0.0691883
LJ          0.633184        -2.41435        -1.55436
LJ           6.43379        0.449404         1.13334
LJ           2.61067       -0.511385        -1.89285
LJ             -1.63        -2.38516         1.44966
LJ          -5.16193         -1.8098        -3.24325
LJ          -4.19621         0.52144        -1.34828
LJ          -6.02127           2.009         1.40427
LJ           5.98209        0.630285         2.37132
LJ           1.71621         6.21613        -5.07536
LJ          -2.26129         2.99616       -0.551693
LJ         -0.453906         1.75807        -1.52467
LJ         0.0511102        -1.81411         3.14851
LJ          -3.20307        -1.95499          3.0926
LJ           4.22122        0.810359        -2.28594
LJ           -2.4649        -2.48884       -0.395867
LJ          -2.38664       -0.384101        -1.04779
LJ          -4.11796         4.36735         2.61989
LJ           -2.0885         3.69756        -3.71946
LJ           4.86455          6.1408       -0.451259
LJ           -3.7313        0.135947      -0.0102871
LJ          -2.83154         1.30766         0.99361
LJ        -0.0327853         4.14334        0.538575
LJ           -1.8277         5.72386       -0.815541
LJ          0.879146         1.38046        0.387674
LJ           1.49725       -0.662088        0.360695
LJ        -0.0276394         5.37282         1.55936
LJ         -0.113494        0.452594         1.67069
LJ           2.16191         6.22894        -0.48805
LJ            -1.104        -1.44657        0.749434
LJ          -1.64858       -0.770199         1.66669
LJ            -3.425         1.30919         3.80497
LJ          -3.88953        -5.10038        0.713427
LJ           3.36445        -5.73693         5.75511
LJ          -1.93637        -3.67006        0.840125
LJ           0.80184        -2.90394         4.82447
LJ          0.949267        -2.89505        0.559495
LJ          0.677338         5.77323         3.01293
LJ           3.55135       -0.908849        -2.26075
LJ           1.81305        -3.24603      -0.0115263
LJ           1.17862        -3.44861         1.50514
LJ          -4.26891        -3.65549       -0.732924
LJ          -4.14122         1.22014       -0.149661
LJ         -0.387501         1.15258        0.475456
LJ          -1.91498        -1.31552       0.0214239
LJ          -5.31857       -0.291784        0.224715
LJ         -0.626625        -1.05496         3.64365
LJ          -2.26823        -1.96173         2.85981
LJ            3.7288       -0.973451        -5.81218
LJ          0.771356         -0.8701       -0.618921
LJ           3.03354         2.12455        -1.36264
LJ           3.60179         2.82973          1.3695
LJ           2.51338      -0.0941892        0.538493
LJ          -4.41595        0.489143        0.722627
LJ          -3.24295         2.04754      -0.0243766
LJ         -0.683226        -1.43883        -6.02624
LJ          -2.83553         2.16422        -1.11517
LJ          -1.22587        0.558384         2.00921
LJ           1.30099         5.48242        0.653211
LJ          0.256589        0.400108         3.67709
LJ         0.0891616      -0.0754715         2.70769
LJ           3.57816        0.612927         1.34922
LJ           2.53564        0.379467          1.6426
LJ           2.22346        0.964998         -5.3639
LJ           3.61444        0.646606         2.86613
