108
#Comment!
LJ            -2.231        -2.16672        -4.18932
LJ          0.531873          5.5777       -0.604901
LJ           1.04494         2.20939        -2.92037
LJ          -3.81385         -5.4859          2.2882
LJ          -1.62345         5.21362         3.79655
LJ          -3.83806         3.75423       -0.518917
LJ         -0.360864        -5.73467         1.57991
LJ           2.74366        -5.16025         4.48195
LJ           5.02914        0.958032         4.47409
LJ          -1.05459        -3.79792        0.466524
LJ            2.9629       -0.423721        -2.26644
LJ           2.21303         2.32945         -1.0951
LJ          0.218572          -2.457         5.73258
LJ          -3.03974        -5.61678        -5.74011
LJ           3.46947         3.04495         1.95642
LJ          -2.13962       0.0962537       -0.916767
LJ          -5.40189       -0.188958      -0.0534964
LJ          0.395522        -1.02078         4.06893
LJ          -6.45892         4.66501       -0.993814
LJ           1.53506         5.48033       -0.409911
LJ           5.92645        0.755762         4.67302
LJ          -1.98687         6.21701         4.09699
LJ          -5.21773         4.51791         6.10992
LJ           4.00297        -3.84108        -5.85105
LJ          -2.81645         3.82657       -0.243498
LJ           -5.6539        -4.71492         1.41301
LJ          0.217007        -5.82848         4.83077
LJ           5.13323        -4.37743         4.36351
LJ           5.91825         4.65598        -5.82489
LJ         -0.122721        -3.68007        -4.46703
LJ            3.2083        -5.45804       -0.176473
LJ           4.15505       -0.674316        -4.98768
LJ          0.585969        -3.64748        -3.12745
LJ           4.94184         0.41663        -4.31524
LJ           1.06503        -2.50034         2.32298
LJ          0.242165          4.9155       -0.343958
LJ           0.49308         3.11921         4.28821
LJ          -3.43389        -5.23996         3.11704
LJ           3.16905        -2.49842        -1.43005
LJ           2.66982         1.87027         3.55779
LJ           4.95699        -4.69649         5.57249
LJ           2.53554       -0.876114        0.905132
LJ           4.31916         1.08921         4.90389
LJ           3.15008         2.71448         5.75788
LJ          -1.29849        -1.62354         5.73811
LJ           1.15519         2.23043        -5.15959
LJ         -0.248305        -5.07019         3.08222
LJ         -0.372161        -4.49133        -4.34902
LJ           6.36339        0.934164         4.76337
LJ           2.91821        -6.10403         1.37006
LJ          -5.75527         5.99412         5.91238
LJ          -6.38096         1.41739        -3.56817
LJ           3.13077         -6.3876        -3.54099
LJ          -5.76503        -2.41794         4.11284
LJ           1.28782         1.88179         2.89683
LJ         -0.455313        -6.12966        0.547911
LJ          0.826956        -5.35305         0.77208
LJ           6.45484        -3.66536         4.79133
LJ          -1.21438        -5.30069        -2.69112
LJ          0.131895         5.19704        -1.93937
LJ          -2.69791         -1.5444         4.54311
LJ          -6.10561        -2.92054         6.35532
LJ           6.37943        -0.16591          1.6104
LJ          -3.80292         3.22593         3.45552
LJ           2.41611         4.87663        -4.34234
LJ          0.901155       -0.950843        -2.39183
LJ           4.14326        -5.21552          4.6281
LJ           6.18698         5.52316       -0.581571
LJ           -5.0908         3.30075         2.61719
LJ         -0.536247         2.50219         2.61811
LJ          -1.23933         2.04352         2.54133
LJ           5.81539          4.9904         5.57975
LJ           5.63225         2.99686         3.88902
LJ           5.01877        -3.10002        -5.91174
LJ           -5.1154        -1.92791        -1.46895
LJ          0.170868        -2.56627         3.03441
LJ          -3.62746         1.61372         2.65214
LJ           1.34523        -5.36019         1.97567
LJ           -5.6111          3.9584         6.05612
LJ          -3.58126        -6.44826        -2.92107
LJ         -0.183579         3.91733         4.72574
LJ           4.65626        -1.20175         5.01556
LJ           5.79793        -3.63804         1.66762
LJ           5.70238        -0.67238        -3.52406
LJ          -4.26791        0.143221        0.506693
LJ           1.52822         6.23536       -0.471777
LJ            5.7469         2.29977        -4.52711
LJ          -4.20741         4.26008        -4.16341
LJ           4.91018        -4.44064         4.58464
LJ         -0.175199         5.08437         2.56286
LJ          0.633769        0.360236        -2.66546
LJ           3.43524        -2.56235        -6.44861
LJ          0.762813         5.71469        0.136456
LJ           1.53738        0.781434        0.572385
LJ          -4.62242         3.86869         3.09422
LJ           5.51395        -1.33963        -5.79112
LJ         -0.734914         3.20404         5.68222
LJ          -4.13186       0.0889454         -3.4514
LJ          -1.11325        0.896606        -3.63071
LJ           -5.5764        -4.48734        -2.40101
LJ          -3.52492        -6.23541        -4.06388
LJ          0.318473         1.14843        0.928558
LJ           4.01342          3.7923        -2.46838
LJ           2.90475       -0.679146      -0.0707701
LJ          -3.68399         4.00314         1.53166
LJ           5.81481         4.10125        0.380689
LJ          0.921587         -2.3877           1.501
LJ         -0.121687       -0.578241        0.718259
