108
#Comment!
LJ           5.57544        -1.76246       -0.364209
LJ           4.25032        -5.62518       -0.804142
LJ             3.501         3.18256        -6.42882
LJ           0.45007         3.65198         1.05427
LJ           5.88477        -6.20069         5.52595
LJ         -0.353861        -5.81861        0.669177
LJ           5.18372        -4.04969         5.77216
LJ          -3.24188         3.12346         1.04148
LJ           1.68566         1.41431         3.62943
LJ           2.41256        -1.67249        -6.14668
LJ           3.81764        -6.40246        -5.91621
LJ          -4.61379         4.05142         2.82063
LJ          -1.56857        -4.49081        -2.24808
LJ          -1.67585        0.932473        -3.60647
LJ           5.35273        -5.92305         5.01491
LJ           1.64152           3.791         1.50686
LJ           1.43908         5.46794       -0.329838
LJ          -0.45021        -5.52864         3.27295
LJ            2.9873         2.88268        0.666899
LJ          -0.31138        -2.66701          1.4298
LJ         -0.452881         5.00873        -4.19815
LJ          -1.91791         1.61122         1.43425
LJ           4.79248       -0.858055        -4.07331
LJ          0.387517        -3.39355        0.641103
LJ           0.67741        0.661972         4.78471
LJ          -4.38147         -2.6383         4.20856
LJ         -0.759644         5.90113        -3.97575
LJ          -1.57385        -4.33933        -2.35254
LJ           4.35075       -0.727073         6.20189
LJ           -2.8076        -1.38544       -0.396417
LJ           2.91461        -2.28807        -5.84935
LJ           3.71371        0.615705         6.09223
LJ           1.74982         3.64027         1.22756
LJ          0.474492         2.18225         4.90426
LJ          0.544914        -6.41163         5.30289
LJ          -5.66435        -4.49789         1.76294
LJ           5.97365        -0.41293        -2.80503
LJ          -5.94577          2.7151         1.77394
LJ           2.30429       -0.508696        0.950606
LJ           4.93243        -5.93346         5.74358
LJ           6.42701         1.74236        -1.11901
LJ           5.23598        -0.11461         3.57708
LJ          -3.67136        -0.88321        -5.97336
LJ           3.03213        -4.85913         -5.2372
LJ          -2.00663       -0.202625         2.50691
LJ          -5.35722       -0.159946        -5.58813
LJ          -3.56358         6.39389         1.53345
LJ           3.74392         5.00416         5.07168
LJ          -5.69107           5.257         2.11924
LJ          -3.95079        -2.52825         3.88093
LJ           3.56757        -2.08622         -2.6032
LJ          -5.74732        -5.23041         1.71316
LJ          -3.75356         2.47905      -0.0463246
LJ           5.74761       0.0363376         4.39162
LJ          -3.78554         -3.2592       -0.145274
LJ          -4.16635       -0.131374         3.18875
LJ          -5.73669         6.18979        -3.90679
LJ           2.98926        0.814971        0.723287
LJ          -2.78487        -6.14068        -5.35146
LJ           2.99711         2.10047        0.623425
LJ             5.821        -1.98021        -5.48221
LJ           -2.4688        -3.25079        -2.03256
LJ          -1.14681        0.533822         0.55189
LJ          -6.01456        -1.76921         2.62701
LJ          -4.59769       -0.689538        -2.21259
LJ             5.869        -5.08675         6.12701
LJ          -5.12522        -3.15842         2.12137
LJ          -2.42395        0.289682          2.9953
LJ          -2.02759        -3.32558        -5.60283
LJ           5.08082         1.94322       -0.668912
LJ           2.53248         4.40861         1.15543
LJ           3.48779       -0.487746        -2.67432
LJ          -1.76526         4.58649          2.7319
LJ           2.33709        -3.18835        0.539289
LJ           5.31235         2.81684        0.433944
LJ         -0.161038         5.11679        0.636756
LJ           2.20852         2.44276         4.06734
LJ           2.17886        -3.41683        -5.14023
LJ           1.13934        -3.55987         3.05866
LJ          -1.72782       -0.642169        0.485697
LJ           6.21479        -4.71397         -6.2239
LJ           5.96937         2.11546         4.47851
LJ         -0.522572         3.79646         4.05396
LJ            1.3475         4.25296          5.6526
LJ           3.81674        -1.34688        0.502112
LJ          -2.14728        -5.51859       0.0549284
LJ           3.89109        -2.38407        -5.19712
LJ           3.52619        -1.10638         5.90686
LJ          -6.32193        -2.98514         4.57733
LJ          -4.44466         2.90845        -2.20539
LJ           5.49786         6.29163         3.80311
LJ          -1.64411        -3.70729         -3.7881
LJ          -2.57707          4.3288         4.12994
LJ           5.20397         3.48459        -3.44021
LJ           -4.6305        0.056311        -1.38616
LJ         -0.135402         2.26909         3.30265
LJ           6.28519         1.84596         3.70658
LJ           -5.4344         2.42371         2.69234
LJ           3.65462        -2.17939         3.79945
LJ           2.12108         1.57169         1.22152
LJ          -3.91886        -2.10282       -0.337487
LJ          0.745951        -6.03455        -2.07753
LJ          -6.15121        -2.33865         5.01232
LJ          -1.61915         3.46981         3.69373
LJ          -3.66077         3.91484        0.373378
LJ          0.881292        -3.26928         2.37139
LJ           -6.0409          3.3577        -3.80884
LJ           2.17949        -4.43936        -4.75264
