108
#Comment!
LJ           3.93296        -1.24834        -5.96301
LJ          -4.73649        -2.83318       -0.238471
LJ          -3.60474      -0.0849224          2.3725
LJ          -3.84218        -6.20163         4.72735
LJ           -5.9548         2.09589         4.85963
LJ          0.386208        -1.00876         2.36278
LJ           4.91795        -3.06761        -3.50651
LJ           4.90523        -3.34732         6.32033
LJ          0.461973         3.02743          1.6491
LJ           2.09963        -4.47038          2.6344
LJ          -4.57526        -4.92218       0.0796582
LJ         -0.599995         2.47959         4.34392
LJ           -2.0464          4.8552         6.02846
LJ           0.62827         4.13163         -2.6015
LJ           3.96745         -6.4027        -1.89055
LJ           2.95532         5.55793         1.47225
LJ          0.177616         2.19935         1.53169
LJ           2.39743        -3.84301        -5.28502
LJ          0.831986         1.05204         3.64816
LJ           2.73391        -4.05223        -2.13595
LJ          0.318817        -3.09382         3.71268
LJ          -6.19572       -0.348387          2.5881
LJ          -2.10648        -1.19053         3.88536
LJ           5.14646        -3.78083        -4.31856
LJ           4.82172         2.18433         4.63165
LJ            4.3776         0.76758        -6.29737
LJ          -3.77976        0.826073        -6.39804
LJ             6.014         4.38949         3.01935
LJ          -6.26294         3.55414        -1.42071
LJ           1.01744         4.18473         2.94331
LJ           1.19102         5.95868        -1.55018
LJ          -5.23748         2.77658         2.02904
LJ           3.07185         2.89266        -6.07535
LJ           2.17794        -0.88014        -5.32612
LJ          -3.08252         6.08684        -3.90354
LJ            2.4336         5.49564       -0.408301
LJ           1.87874        -5.98897         4.00826
LJ            -5.057        -1.00566        -3.19551
LJ          -1.10703         6.08067        -3.52456
LJ          -4.08018         2.75786        -2.43733
LJ          -5.53276          6.0305        -2.88138
LJ           2.49637         4.78213          3.2296
LJ          -5.20204         1.16488         3.57444
LJ          -5.56083         1.88265       -0.078877
LJ           4.09784         4.51852        -2.78037
LJ           4.15425        -6.36902        -2.13375
LJ          0.163566         5.48356        -0.85288
LJ           3.41061         2.28199         -4.5979
LJ          -4.32634         2.76765         1.14699
LJ           4.21176        -4.38656        -4.77506
LJ          -1.34499         6.01825         4.05621
LJ          -2.15286         5.83294         4.38424
LJ         -0.975344        -5.69342         2.36523
LJ           5.73317           5.717        -3.28325
LJ           2.61827        -3.05226         2.27756
LJ            2.1124         5.18956        -2.49574
LJ          -1.38441        -5.39201         2.08289
LJ           2.66606        0.505345        0.937857
LJ           2.79981        -0.61721       0.0273809
LJ          -1.66162        -2.51934        -1.38405
LJ          -3.23271         5.52177        0.891008
LJ          -6.18633         5.44336        -4.92211
LJ           1.55624        -2.83284         5.97363
LJ           5.30086        -5.12913         1.95468
LJ          -2.28403         3.00477        -5.13164
LJ          -1.52873         2.72055        -4.12951
LJ          -1.37753          2.7217        -6.26266
LJ           1.10733        -4.74559         2.83574
LJ            2.3427        -5.95955        -0.79215
LJ          0.436853       -0.277966        -1.20098
LJ           2.89547        -3.96899        -5.51532
LJ           4.14348         2.84417        0.852227
LJ           5.12307         1.96013         2.50891
LJ         -0.271485        0.682618         3.49508
LJ          -5.04551        0.776116        -1.73402
LJ           2.15849         4.70364         2.70348
LJ          -4.93959        0.888583        0.832964
LJ           4.52723     0.000298898        -3.70339
LJ          -1.36893         -3.3973        -1.19358
LJ           2.50701         6.20091        -3.43478
LJ           4.32615        -5.01875          2.9616
LJ          -1.38915          3.9571        -6.40733
LJ          -2.02671        -2.37895         4.15207
LJ           3.13741       -0.424153       -0.622501
LJ           1.45151        -2.53421         5.55898
LJ           -5.3979        -3.67665        -4.13591
LJ           4.89574         4.10755        0.797537
LJ          -1.40374         5.66081         5.80108
LJ          -2.73072        -3.75173         -5.9919
LJ           5.29116       -0.628716       -0.982158
LJ           5.29847         5.26639        -1.90051
LJ           2.19125         3.47122        -3.26851
LJ        -0.0516612         5.73975         3.55237
LJ          -4.02586       0.0366051        -3.41969
LJ           4.72154        -1.72793        -3.87636
LJ           5.99363         4.36556         2.96979
LJ           4.88427         5.06992        0.617491
LJ          -3.89166         3.23077         2.31182
LJ            -2.786         3.56901         -0.1993
LJ           2.44048        -5.91079        -2.73322
LJ           5.53998        0.342334          1.9387
LJ           2.69003         3.27288        -2.81954
LJ           -3.7531         2.90969         2.19667
LJ         -0.869915        -3.77022        -2.88333
LJ          -5.91063         3.61709        0.535551
LJ           4.98958       0.0917061        -5.45795
LJ           5.37046        -5.69437        -1.72857
LJ           -4.8505        -1.04778        0.754863
