108
#Comment!
LJ         -0.603535        -2.25592         2.62708
LJ          -4.87144        -4.40436        -2.88916
LJ           1.49051         -2.8409        -0.89904
LJ          0.544945        -1.21422        -2.20866
LJ           1.36093         1.29567        -6.20751
LJ          -2.91361        -5.88615        -1.09984
LJ           2.40179        -2.62426         4.66826
LJ          -1.86531        -5.18024       -0.823767
LJ          -1.42174         5.22467         4.60075
LJ          -1.79062         2.20439        -5.65552
LJ           2.97082         5.18454         1.54198
LJ          -2.86974        -2.51389         6.06526
LJ          -5.35061         1.39854        -5.64996
LJ           4.98583        -1.41081        -2.40046
LJ           1.06871         3.73654        -1.29667
LJ         -0.824913        -4.77786        -1.01816
LJ          -3.62565         4.81577         5.35013
LJ            4.7356         4.95932         3.74809
LJ          -6.31819        0.104325        -5.56898
LJ          -4.41984        -3.87142        -6.38753
LJ          -4.81264         6.20475          3.5317
LJ           5.74355       -0.353452        -3.55755
LJ          -3.84063        -3.36141       -0.864613
LJ           1.47874        -4.67511         1.73951
LJ          -6.02464        -6.41247         5.00002
LJ          -6.37146        -4.65123        -2.03669
LJ          -5.65082         6.00903        -4.79197
LJ          0.351363         2.15658        -4.61866
LJ          -1.27021        -2.83656         1.03666
LJ          -1.05738         4.59225         3.68531
LJ          -5.61528         2.37507        -4.13268
LJ           2.50595         5.45804        -2.23422
LJ          0.714794        -6.36109        0.804166
LJ          -5.28954          5.6618        0.692495
LJ         -0.908829         3.41464        -5.99116
LJ          -2.57999         4.09117        -5.00449
LJ           1.22786        -3.46476      -0.0924961
LJ           4.54427         -2.5414         1.34051
LJ          -2.40439        -3.42011        -6.44693
LJ           6.15522        -6.04615         5.01725
LJ           2.72134        -1.29517        -6.09775
LJ          0.714785        -5.64016          2.7184
LJ          0.016696         6.24905         3.95457
LJ           6.29088          1.9104        -1.65344
LJ          -2.09761        -4.87889         -3.9128
LJ           3.81065        -1.21751         6.11826
LJ           6.05487     -0.00502918        -5.48121
LJ          -6.04966        -5.38205        -4.89381
LJ           5.85332        -3.39046        -2.88364
LJ         -0.281959         4.68479         5.76985
LJ          -0.85738        -0.56634        -1.51428
LJ          -2.81402        -6.26338          -3.863
LJ           5.47583          3.7266        -4.12436
LJ           3.91088         5.12585        -4.13906
LJ           2.78429          4.9972       0.0961555
LJ         0.0847546         -0.3598         2.09401
LJ            1.5998        -5.86185         5.02751
LJ          -2.38146       -0.907048          3.8046
LJ          -4.10264        -0.26765         1.76182
LJ           1.46756        -4.26862        -4.82317
LJ          -4.42294         5.16547        -5.64214
LJ              2.48        -2.56278        -1.22797
LJ          -1.97851        -1.52123        -0.65457
LJ           4.26035        -5.68097        0.695787
LJ           1.35666         5.98049        -1.19654
LJ          -5.98559        -4.59105         6.05836
LJ           5.46561        -4.31321         1.15483
LJ          0.430365         6.04027        -2.78508
LJ           4.17748       -0.442069         4.54357
LJ          -5.08191          6.3408      -0.0561948
LJ           3.28849         3.52001       -0.958053
LJ           1.36687        -6.44564        -3.75851
LJ           5.97508         4.65738         5.41866
LJ         -0.419419         5.43005         3.94339
LJ           5.18431        -2.39942        0.988011
LJ          -5.45943         3.30083        -2.44357
LJ           4.52811          0.9248        -5.46322
LJ          0.633351        0.398134        0.245598
LJ          0.272356        -6.28825       -0.888496
LJ          -6.37985         1.80284        -6.17972
LJ           4.39039         2.44014         4.51568
LJ           6.08586         3.10314         4.27785
LJ        -0.0208116         2.22093         0.52908
LJ           2.21837       -0.521598        -5.79274
LJ          0.727055         3.13857       -0.352451
LJ           5.41451        -6.01758        -5.34898
LJ            6.0453         3.81651        -1.07875
LJ           3.17972        -5.81751        -3.33377
LJ          -5.42895         5.29483         4.86205
LJ          -1.35062        0.591562         3.73725
LJ           1.82747        0.706963        0.688927
LJ           4.78157        -2.14491        -6.29047
LJ          -2.29747          1.4461       -0.596847
LJ           2.91881        -5.42906        -6.07823
LJ          -4.71442         1.49513       -0.280183
LJ           4.98751        -3.22119          -3.076
LJ          -2.86677        -4.53058         5.60855
LJ           3.68589       -0.445059         4.42575
LJ           5.81072        -2.27781         1.02262
LJ          -6.13283         3.76677         1.74161
LJ           1.79185         1.69077       -0.766095
LJ           4.76044           4.559         -1.7458
LJ          0.792038        -5.06936       -0.953358
LJ           1.27505        -5.85357        -1.23008
LJ          -2.74156        -3.68518        -2.69549
LJ           3.11876         5.68033        -6.19201
LJ          -4.81598         4.56029        -1.54563
LJ         0.0269165        -3.28952         4.10191
