108
#Comment!
LJ          0.955608        0.340985         -2.6118
LJ           4.20852         -1.1634         3.81669
LJ           3.65746        0.304192        0.493219
LJ           4.67406         2.38469        0.404359
LJ          -4.17542        -5.66855        -5.24743
LJ           3.87451         3.64595        0.626326
LJ          -2.91687       -0.492122          3.8942
LJ           4.28873        -1.92921        -4.25986
LJ           -2.3772         2.84514         2.08262
LJ          -3.67739       -0.296404         -6.0241
LJ           -2.4779        0.179472        -5.27961
LJ          -3.38086         3.54979         0.70198
LJ           1.16077         6.42861        -0.66818
LJ          -3.93554        -2.12839       -0.709197
LJ          -1.86574         1.80704        -5.21191
LJ          -1.06732        -2.43099         3.01718
LJ         -0.916868        -3.39199         6.34662
LJ         -0.758603         5.30701        -5.20354
LJ          -2.43131         -2.9091        -5.77124
LJ          -4.05035         5.10874        -6.19477
LJ          -2.23578          1.4564          1.3486
LJ           3.53653         5.72836        0.911099
LJ           6.10199         1.16285        -6.14979
LJ           1.03533        -4.06945         2.57332
LJ          -2.97335        -1.96315        0.138632
LJ           6.12205         6.02915        -1.16794
LJ          -5.47773        -6.44376       -0.759545
LJ          -5.12386       -0.736514        -5.15173
LJ          0.732308         5.63756         1.19585
LJ           1.33867       -0.342191         3.69603
LJ           1.61537          4.1744        -4.16429
LJ           3.35621         6.19596       -0.102005
LJ           5.38496       -0.614428         4.58008
LJ           3.56861        -2.76469         -2.1041
LJ            5.4824         5.05581         1.84544
LJ         -0.321594        -1.37292        -4.36149
LJ          -3.91897         6.44789         5.10352
LJ          -4.05148       -0.190221         1.77511
LJ          -1.28984       -0.596413         5.43277
LJ          -5.63226         4.51837       -0.737101
LJ           5.64001        -3.03462        -2.45563
LJ          0.974233        -4.58565         4.07373
LJ          0.156433        -2.48768        -1.42615
LJ          -2.99764        -0.18299         2.34978
LJ           4.68969         3.67687         5.70894
LJ           5.72406        0.664803     -0.00757575
LJ          -5.10874        -3.37441        -2.48769
LJ          -3.34088       -0.860129         6.01567
LJ           2.89551        -1.38364         5.14957
LJ           5.00524        0.311895        -2.51801
LJ          -1.88474        -3.55746        0.246126
LJ          -2.61446        -6.42053        -3.27269
LJ          -3.44543         5.48727        -2.59089
LJ            3.4586         4.81539      -0.0419412
LJ           2.15112         5.77052        -2.15249
LJ          -3.36429         5.64297         5.69505
LJ           4.20252         3.13154        -3.61406
LJ          -4.30655         4.76821        -2.31476
LJ           3.29559        -4.98776        0.239126
LJ          -3.63763        -5.94143       -0.674873
LJ          -1.93551        0.195976         6.31122
LJ          -2.90135         4.06537         2.10097
LJ          -5.26369         5.99592         6.14373
LJ            4.5585          6.4339         1.10612
LJ            5.9186         6.17663         1.92425
LJ           3.18007         6.42237         -1.4427
LJ           3.77065        -2.70433        -0.49045
LJ           1.56647         2.77108        -4.49222
LJ             5.548        -1.81798        -2.65633
LJ           2.05123         3.57167         2.69585
LJ          -1.16713         1.18825         1.32029
LJ          -3.67863          -1.233         2.04544
LJ          -6.21286        -3.74655        -2.44759
LJ          -1.96185        -3.66065         6.10025
LJ          -4.70533        -3.17234        -3.85689
LJ           1.93337        -1.67366       -0.524937
LJ           4.39353         2.48671         6.05397
LJ          -1.81733        -1.91184         4.46394
LJ          -5.50418        -6.43929        -4.04611
LJ          -2.46055        -3.99878        -5.98659
LJ           0.56981       -0.615813        -4.99951
LJ           4.13038        -1.48702         -2.9906
LJ           3.43651       0.0214649        -1.08899
LJ          -2.24157       -0.847438         4.86951
LJ          0.888656         4.92106        -6.18653
LJ          -3.68951       -0.484027         0.32778
LJ          -1.65583         1.23531          2.3183
LJ          -5.00472         3.98023        -6.39785
LJ           3.85158        -1.36184        -1.53181
LJ           1.83471         5.53962       -0.700919
LJ          -5.36527         4.21583         4.32712
LJ           6.06464       -0.124544         -2.5126
LJ          -4.94118         4.86453        -4.71124
LJ           1.91311         1.53825         0.77924
LJ          -4.41478        -5.93498        -3.73664
LJ           4.49552        -2.45003        -1.74688
LJ          -2.60499        -1.72291         3.22506
LJ         -0.868397        -5.08743         4.13278
LJ         -0.733567        -4.59695        -5.17093
LJ           6.18986         5.00665         -1.1938
LJ          -2.21556        0.256517         1.33801
LJ           2.43767        0.346079       -0.253339
LJ           3.74952        0.930178        -3.84223
LJ          -1.19504         0.34267        0.337939
LJ          -6.11678         2.87545         1.53988
LJ           4.48688         3.69954         1.85059
LJ          -2.59435        -3.55156        -2.02805
LJ          -5.71315         1.45377         6.30834
