108
#Comment!
LJ           -6.2174        -5.81853        -3.73498
LJ          -3.25683      -0.0499213        -3.74606
LJ          -3.20585        -1.88188        -1.32129
LJ          0.604366        -5.71295        0.596182
LJ         0.0160855        -2.56456         -3.2257
LJ           3.03018        -4.24584         5.94026
LJ          -1.75006        -2.64866        0.173187
LJ         -0.377461        -1.38642         -2.8367
LJ           5.20471        -2.32528        -5.01169
LJ          0.793968        -2.32636        -2.60995
LJ           2.73181        -5.53102        -5.43659
LJ           3.12033        -4.29527        -1.55166
LJ          -4.39978       -0.308432       -0.660598
LJ           -1.6869         1.81016        -3.81574
LJ          -2.08307         1.56573        -1.88995
LJ          -3.56716        -5.27501       -0.705713
LJ          0.564769        -1.42428        -3.32697
LJ          0.224505        -1.25817        -4.60654
LJ          -1.20235       -0.587525        -1.80826
LJ           1.31119       -0.656656        -1.69834
LJ          0.848152         -2.5733        -3.83192
LJ           1.94551       -0.693288        -4.33811
LJ            2.8666         1.52934        0.245716
LJ           4.93598       -0.494974        0.576843
LJ          -4.78891        0.105061          -5.086
LJ          -4.70029        0.468281        -4.09082
LJ            -3.746        0.684236        -4.70582
LJ         -0.913824         1.53697        -4.51711
LJ          -4.96409          1.2777         6.36264
LJ           -4.4574         2.59866        -6.30231
LJ          -1.88593         2.10098        -2.72465
LJ           1.04655       -0.457898        -3.40403
LJ           2.35125       -0.333144        -3.15415
LJ          0.146642         2.25968        -4.29065
LJ          0.138107         4.94477        -2.79841
LJ           2.86668        0.618239        -2.16183
LJ          -1.23778         6.23418         1.41035
LJ         -0.567084        -2.24954        -1.50376
LJ          -2.47144         6.33633        0.869463
LJ          -2.20771      -0.0222122        0.131505
LJ           0.92878        -2.45559       -0.579641
LJ          -2.21055        -1.29985        -3.82037
LJ          -4.34531        -3.00676        0.938375
LJ         0.0289716        -2.75013       0.0125412
LJ           0.61327        -2.31617        -1.63545
LJ           5.97802        0.193564        0.908919
LJ           2.47059       -0.801444        -1.65841
LJ          -1.23736        -2.53738         1.25396
LJ          -4.83085        -1.58653        -3.05762
LJ          -3.59126        0.593266        -1.21877
LJ          -5.85684         1.85368         1.21155
LJ          -6.37626        0.267887         1.89786
LJ           1.40108        -5.89266        -4.71352
LJ          -1.90719         2.77295       -0.674503
LJ          -0.56656         1.37925        -1.28405
LJ          0.160384        -1.34812         2.59148
LJ          -4.21556        -2.11074         2.12113
LJ           4.09629        0.816625        -2.14864
LJ          -2.18841         -1.9807       -0.726827
LJ          -1.81304       -0.447208       -0.939744
LJ          -4.00027         3.95759         2.12042
LJ          -2.04925         3.51733        -3.28097
LJ           5.45207         5.62385       -0.435406
LJ          -3.54926       0.0483131      0.00887982
LJ          -2.68107         1.04231        0.860683
LJ        -0.0178245         3.94559        0.260459
LJ          -1.57183         5.03421       -0.717506
LJ          0.812128          1.5863        0.316167
LJ           1.14848       -0.390168        0.282445
LJ         -0.220402         5.39595         1.33014
LJ          0.136733        0.549915         1.80187
LJ           1.95845         5.53472       -0.511804
LJ          -1.25183        -1.52001        0.770994
LJ           -1.8366       -0.922736          1.8101
LJ          -3.22352        0.963657         3.71142
LJ          -3.68488        -4.72561        0.792924
LJ           2.83044        -5.48992          5.1279
LJ          -1.84149        -3.49931        0.780073
LJ           0.66808         -2.4219         4.53747
LJ          0.709522        -2.81803        0.780215
LJ          0.709643         6.33193         2.70934
LJ           3.56437        -1.26053        -1.77911
LJ           1.73997         -3.2675        0.318867
LJ            1.4389         -3.5339         1.28191
LJ          -3.99043        -3.52361        -0.41988
LJ           -4.2022        0.865837       -0.407197
LJ         -0.791263         1.10212        0.462453
LJ          -2.18991        -1.04544        0.253128
LJ          -4.79261       -0.306128        0.382448
LJ         -0.643667       -0.927494         3.37421
LJ          -2.25893        -1.79836         2.96345
LJ              3.29        -1.02203        -6.38857
LJ          0.864706        -1.32888       -0.401214
LJ           2.98308         2.10065        -1.23776
LJ           3.27939         2.68158         1.64802
LJ           2.30044       -0.141549        0.220754
LJ          -4.14766        0.845602        0.830582
LJ           -3.0154         2.02138        0.119866
LJ         -0.940076        -1.08559          6.1978
LJ          -2.42048         1.82478       -0.904297
LJ          -1.02466        0.429278         1.64693
LJ            1.1014         4.78985        0.601734
LJ          0.115503        0.782869         3.65808
LJ         0.0419603         -0.3282         2.68457
LJ           3.43629        0.857054         1.26348
LJ            2.5288        0.311449           1.722
LJ           1.90503        0.861557        -6.20871
LJ           3.56212        0.668139          3.0028
