108
#Comment!
LJ          -3.80298         3.24733        -5.42647
LJ          -4.22726         6.25263         4.56597
LJ          -5.35813        -4.28035         2.27351
LJ          -3.89694        -6.32075        -1.71273
LJ          -4.17076        -3.07163        -1.36916
LJ          0.706071       -0.288276        -5.35809
LJ           3.07589        -4.39317         4.39075
LJ         -0.823242        -3.14515         4.90849
LJ           5.77429        -3.17477        0.438507
LJ          -5.00364          1.4122        -2.17227
LJ           5.52479        -2.36187         5.52061
LJ         -0.654844        0.427093    -0.000258723
LJ          -1.99635          2.0644        0.862478
LJ          -5.76372        0.238388        -5.83603
LJ           5.01773        -6.10441         -5.5668
LJ          -3.90675       -0.263422         6.22926
LJ          0.475837       -0.588891         3.13137
LJ           1.49217         2.73805         2.71176
LJ           4.75382        -4.66328           -6.29
LJ          -4.85441         4.01913         2.68565
LJ           4.97789        -5.68455         3.51638
LJ           1.06392        -1.42875         -1.2521
LJ          -2.14305         5.05691        -3.22614
LJ          -5.64553        -6.44712         2.91889
LJ           4.39461         5.06338         2.33211
LJ           1.05377        -1.88586         4.55613
LJ           3.47267        -0.75827         6.14645
LJ          -4.81594         4.25707         4.81921
LJ           4.22268        0.773765       -0.604013
LJ          -3.92621        -5.96728         -3.6383
LJ          -2.71735        -5.35863        -2.81668
LJ         -0.135353        -5.05257        -4.88697
LJ           2.78949         5.64621         -0.8672
LJ          -2.12283         4.14722         3.38608
LJ           6.18006        -5.94227        -3.74174
LJ           4.64025        -6.13516        0.223943
LJ           3.73696        0.682446        -2.36246
LJ         0.0283378         4.36381       0.0503216
LJ           6.03887        -6.41295       -0.198158
LJ           2.56803         1.07165        -5.04901
LJ          -1.81222          1.3497       -0.693889
LJ          -4.11517         2.96913        -4.21447
LJ          -3.44637         2.75493         4.71224
LJ           6.31363         1.49746          1.2993
LJ           -2.9225       -0.659658         5.16947
LJ          0.592007         4.72248       -0.664911
LJ          -5.50998        -5.65339        -5.95747
LJ          -4.57846          5.8109        -1.28967
LJ          -1.86865         5.83104         5.63244
LJ           4.20316        -4.97625        -4.82937
LJ           5.06187         3.68714         2.92128
LJ          -6.05493         -5.8079        -4.78445
LJ           2.77948        -1.73311          2.3285
LJ          -1.93272        -4.14029        -2.88854
LJ          0.582974         1.93134        0.472577
LJ          0.572952         2.48376        -3.20277
LJ           4.72695        -5.11976        0.370485
LJ          -5.88131        -5.68344         4.64867
LJ         -0.160676         6.46176        -3.41695
LJ          0.356304        -5.97936         2.88644
LJ          -5.09783      -0.0498553         2.91282
LJ           4.60548        -5.50692        -3.96022
LJ           1.75258        -3.79297        -2.71057
LJ          0.587024        0.733399         2.81486
LJ           -2.3932        -1.84071        -2.33605
LJ          -6.42205        -5.93382        -3.99761
LJ          -5.68826        0.339808        -4.84281
LJ          -1.12997         2.48353         2.79778
LJ          -1.14714        0.667992          3.9302
LJ            6.2969        -2.71834         2.83106
LJ          0.305425        -3.35389         3.62212
LJ          -5.05212        -3.82651        -4.28738
LJ           -6.2769         5.15432        -5.04428
LJ          -6.02398         4.16612        -3.90623
LJ          -3.10668       -0.789009         -4.9754
LJ           1.12786         1.48837        -4.78727
LJ          -4.69506        -4.51019       -0.199401
LJ           4.21589          2.7448          5.6379
LJ          0.416808          1.0416        -2.98129
LJ          0.349786        -4.54481         5.35246
LJ           4.26859       -0.349851         5.65341
LJ           3.90295        -4.41332          1.4834
LJ           3.38653         5.68661          5.3793
LJ           5.72596        0.182418        0.456014
LJ          0.140587         5.07034        -2.96468
LJ           1.54514        -1.81943         5.44343
LJ          -5.22271         6.30829       0.0883586
LJ           1.91349         2.29742        -0.23937
LJ          0.383314         3.22866         6.41218
LJ          -3.15037         5.14261         2.18658
LJ           -2.5166         2.14002        -1.26809
LJ           1.51318        -6.02878         2.11344
LJ          -1.49208          4.2224        -3.45159
LJ          -4.21982        -1.35305         3.68222
LJ          -1.73392        -4.83647         2.37143
LJ           4.62421        -5.17899        -3.52955
LJ           6.35718         5.39467         3.61295
LJ           1.15621          5.6412         5.90587
LJ          -2.03565         3.61814         5.48576
LJ          -1.40645          5.2737         4.19698
LJ           6.27999        -6.22066        0.150603
LJ          0.820953         -3.8888        -1.33975
LJ          -3.87107         2.40075        -2.41446
LJ          -4.39664        -1.30273        -4.59753
LJ          -5.26346        -2.44441         1.02955
LJ           1.30531         5.42401        -5.72924
LJ          -3.05457        0.324115        -6.20922
LJ         -0.391349         3.51784        -0.19526
