108
#Comment!
LJ          -5.26082        -5.01817         -3.5384
LJ           -2.6102       -0.439215        -3.64754
LJ          -3.32117        -1.78608        -2.00104
LJ         0.0036631        -5.20892       -0.186339
LJ         -0.096718        -2.94461        -3.07873
LJ           2.26834        -3.54879        -5.93737
LJ          -1.81229        -2.49554       -0.520616
LJ          -0.25085        -1.68019        -2.85493
LJ           4.30046        -2.60419        -4.52152
LJ          0.801496        -2.17707         -2.5282
LJ           2.13641        -5.01585        -4.65877
LJ              2.34        -3.89234        -1.47236
LJ          -3.84062        -0.53225       -0.828014
LJ          -2.01472          0.6635        -3.75679
LJ          -2.35529          1.1691        -1.60107
LJ          -3.27314        -4.17746        -1.01203
LJ          0.478999       -0.946984        -2.86608
LJ         -0.145995        -1.32917        -3.93816
LJ         -0.721512       -0.776177        -1.64596
LJ           1.09666        -1.15677        -2.04777
LJ            1.3199        -1.93183        -3.52691
LJ            1.7619       -0.211747        -3.61822
LJ           2.53727        0.929498       -0.420982
LJ           4.40364       -0.557429       -0.332079
LJ          -3.95887        0.847205        -4.84246
LJ          -4.64033         1.17781        -3.54432
LJ          -3.30015        0.921351        -3.69244
LJ         -0.753275        0.849867        -3.65553
LJ          -3.98483         1.33565        -6.01343
LJ          -3.49741         1.80749        -5.14975
LJ          -2.21531         1.98345        -3.01224
LJ          0.405945        0.125873        -3.07296
LJ           1.48563       -0.186521        -1.93892
LJ          0.290905         1.89547        -3.86365
LJ         -0.286689         3.34094         -2.0504
LJ           2.58766         1.09793        -2.30703
LJ          -1.73264        -5.68132        0.940203
LJ         -0.924748        -2.65191        -1.81662
LJ          -2.87687           -5.72        0.511849
LJ          -1.79319       0.0994692       -0.116728
LJ          0.985915        -2.98814       -0.670079
LJ          -1.63843       -0.838564        -3.36874
LJ          -3.59434        -1.86095        0.298353
LJ         -0.253939        -2.37565       -0.202163
LJ          0.360936        -1.72685        -1.48415
LJ           5.16522       -0.321878        0.577052
LJ           2.09961        -1.30434         -1.3801
LJ         -0.513161        -2.95371         1.18315
LJ          -4.19578        -1.16789        -2.70814
LJ          -2.35499        0.496465       -0.842695
LJ          -5.54674         1.47913        0.864884
LJ          -5.40464       -0.346845        0.930516
LJ          0.975899        -4.40451        -4.13556
LJ          -1.33344         2.22819       -0.815058
LJ           -1.0186        0.666885       -0.749606
LJ          0.250582        -1.23342         1.59284
LJ           -6.3214        -2.12535        0.820863
LJ           3.56713        0.780998        -1.86478
LJ          -1.25654        -1.48047       -0.760934
LJ         -0.803998       -0.446688       -0.237721
LJ          -3.78618         3.21274          1.2158
LJ          -1.94302          2.9225        -2.45191
LJ          -6.41759         4.69331       -0.406974
LJ          -3.10534       -0.115271        -0.27067
LJ          -2.56145        0.705541        0.371555
LJ         -0.139352         3.64075       -0.338614
LJ          -1.07932         3.75485        -0.51225
LJ          0.616495         1.87051         0.20551
LJ          0.706305        0.051883        0.114388
LJ          0.192714         4.95717        0.764452
LJ          0.384435        0.803972         1.72336
LJ           1.49516         4.21634       -0.446707
LJ          -1.59556        -1.56773        0.760381
LJ          -2.00861        -1.37366         1.81567
LJ           -2.8553        0.335287         3.53432
LJ          -3.29029        -4.07713        0.836333
LJ           1.88126        -4.94333         4.06773
LJ          -1.66628        -3.28291         0.88912
LJ          0.410956        -1.53334         3.99934
LJ          0.840289        -2.74086         1.38549
LJ          0.746318        -5.59993         2.12108
LJ           3.28698        -1.72261       -0.936767
LJ           1.63031        -2.95338        0.495911
LJ            1.7018        -3.89367         1.61498
LJ          -3.49062        -3.17613        0.259214
LJ          -4.20913        0.726933      -0.0949377
LJ          -1.39575         1.14238        0.698723
LJ          -2.60679        -1.00116        0.387062
LJ          -3.75609       0.0878167        0.651206
LJ         -0.646988       -0.911458         2.74554
LJ          -2.13923         -1.3769         2.92629
LJ           2.49006          -1.103          5.5077
LJ           1.00168        -1.62286     -0.00698919
LJ           2.87598         1.85777       -0.919703
LJ           2.69075         2.30107         2.08841
LJ           1.75972       -0.174087        -0.27346
LJ          -3.47152         1.16826         0.58103
LJ           -2.5482         1.75516        0.408337
LJ          -1.39076       -0.450118         4.93691
LJ           -1.7694         1.23954       -0.326095
LJ         -0.405754        0.188159        0.916145
LJ          0.829358         3.69784        0.576383
LJ         -0.164882         1.23483         3.38643
LJ         -0.222681        0.251671         2.93749
LJ            2.8984         1.29709         1.01716
LJ           2.66911        0.326463         1.68144
LJ           1.33427        0.659677         5.20337
LJ           3.40684        0.699797          3.1075
