108
#Comment!
LJ           5.78292        -5.45117         1.36096
LJ           4.29592         2.77302        -3.94824
LJ          -3.50246        -1.17316        -5.99207
LJ           -3.5049         5.93607        -1.52125
LJ          -3.99971         2.35761      -0.0666125
LJ          -3.12376         1.49597        -1.87274
LJ          -3.02821         4.50304        -3.78484
LJ          -6.28444        -2.33003       0.0402354
LJ           -1.9857         6.33388         3.09926
LJ             1.757        0.665662         2.10591
LJ            4.5395        -1.00222        -2.77209
LJ          -1.67703         6.38069        -2.35218
LJ           5.77946          3.0156         2.41256
LJ          -4.28322       0.0588639         4.59342
LJ          -5.18708        0.206542         1.92264
LJ           5.93355        -6.10687        -6.41131
LJ           2.89394         5.25536         1.63671
LJ           4.38205         1.10169         4.32933
LJ           1.19524         5.84621        -5.74337
LJ          -5.59802        -5.08024         4.49109
LJ           1.86075           4.192        0.885225
LJ          -3.05593         2.76373        -1.42209
LJ          -3.06309         3.08967       -0.619521
LJ           6.38558        -1.90364        -3.10671
LJ          -5.46054        -3.21499         3.93971
LJ          -4.24085         4.87428        -2.11667
LJ          -4.82946        -3.55228         3.49427
LJ          -3.48174        -1.41588        -5.60727
LJ         -0.982477        -2.77944         4.99655
LJ           3.26555       0.0402019         4.51233
LJ           1.66884        -1.11532        -1.59367
LJ          -3.29822         1.39293         5.09394
LJ            2.6159        -5.96053         1.62497
LJ          -1.25119        -2.89872       0.0905853
LJ          0.302252        -1.52657        -5.56421
LJ          -6.36757        -3.08892        -5.37168
LJ           2.31636         1.65768        -2.72651
LJ           2.86585         3.95748        -3.49988
LJ           1.05441         6.33595        -6.45722
LJ           5.19407         3.76965        -3.64962
LJ           -4.9966         2.96111         2.45587
LJ           1.23917        0.987772        -1.88484
LJ           5.93782         5.07009         3.19345
LJ          -1.12255        -5.30884         6.19652
LJ          -5.71733         2.58214        -6.06309
LJ          -3.62005        -4.70808        -5.33682
LJ           1.73674        -4.44877        -4.00167
LJ          0.448281         5.21764        -2.78628
LJ          -1.17591         3.53204       -0.623036
LJ          -1.51949         3.67199         1.12194
LJ         -0.749943        -5.31439       -0.332156
LJ        -0.0459922         2.90985         1.42444
LJ            2.2312         3.08394         5.32027
LJ          -2.43291        0.375194       -0.020836
LJ         -0.503247         -6.1631        0.200297
LJ          -1.36153        -5.29302        -5.57964
LJ         -0.970969        -2.75759        -5.13182
LJ           6.06326        -5.14742         1.37165
LJ          0.246831        -3.93344       -0.656964
LJ           1.68453         2.21227         3.57747
LJ           3.20471         3.14964        -1.25556
LJ          -6.00058         2.82727        -2.66256
LJ          -6.38407       0.0651984        -3.22468
LJ           4.56722         1.15319        -2.60589
LJ          -1.36957         3.48437         1.17039
LJ           4.75282         2.84589        -1.85085
LJ           4.82683         2.31534        -5.88661
LJ           1.11588         6.44371        -5.10691
LJ          0.764258        0.312247        -3.35759
LJ           2.86503         4.94415         5.71329
LJ         -0.915577        -4.27024        -5.65114
LJ         -0.638634         1.16748        0.680467
LJ          -1.01979        0.495449         5.45393
LJ           4.74123         5.22132         4.76689
LJ           5.33218        -2.92926         6.09247
LJ           3.64307         -4.2225         3.94493
LJ          -2.41472       -0.290066         6.34111
LJ           1.06095        -3.46795        -3.21637
LJ          -2.79517         5.01007         1.84881
LJ          -4.20728          5.9704         4.19504
LJ          -3.83852         2.01422        -4.92793
LJ          -1.93286        -3.23833          4.0165
LJ           5.78133        -2.79049         4.27471
LJ          -1.83222         3.93145        -5.51439
LJ          -4.76205       -0.903769          3.3301
LJ          -3.89295         3.72133       0.0248791
LJ           2.53081         2.61777        -1.61714
LJ          -3.17629         3.68395         -5.2051
LJ           4.85636         3.12889        -3.68574
LJ          -1.25646        -2.31933        0.368238
LJ          -3.14391         2.19154        -2.92978
LJ           5.32116         5.32929        -5.92651
LJ           2.90979        -1.43752        -2.16113
LJ          -2.35326         2.30522        -3.24232
LJ          -2.03334        -1.11343        0.779581
LJ           4.77525         2.68847         6.18499
LJ          0.517446           4.744          4.0414
LJ          -5.83122         2.48888        -3.96951
LJ          0.737646         3.33708         2.78722
LJ          -5.57099        -3.69977        -0.48956
LJ          -1.75715        -6.05523         3.63972
LJ           3.50936        -3.43876          4.0261
LJ          0.584857         6.41723        -6.25382
LJ          -3.13354        -1.10704        -4.09398
LJ          -3.08446        -4.28378        0.678645
LJ          -1.32649         5.25417         2.97952
LJ          -4.07971         5.10185       -0.391254
LJ           2.13807         4.54316         3.51712
