108
#Comment!
LJ          -3.98683        -4.37131        -1.93963
LJ          -4.61803         4.08322         2.63699
LJ          -3.92434         -5.4577        -6.00412
LJ          -5.09692         2.65933        -5.67089
LJ          -2.99958          6.0905         0.39939
LJ           3.96048         5.67525         2.52461
LJ          -2.50784       -0.177979         3.16196
LJ           1.17879        0.150936        -1.65205
LJ          0.937925        -1.51217       0.0720421
LJ         -0.466042         3.64716        -1.22121
LJ         -0.559564        -4.37093        -3.42904
LJ           4.43217         4.91458         4.60442
LJ          0.166855        -3.27251        0.608077
LJ           3.79315         6.11137        -3.08178
LJ           1.59016        0.612872         5.63744
LJ           2.72189         5.05255         2.02305
LJ           -2.5113       -0.398941        -4.08335
LJ            -5.272         1.22446        -4.83179
LJ              2.28         6.05343       -0.487181
LJ           2.89363         5.98767        0.551645
LJ          -1.44078         1.16469        -2.20194
LJ          -3.68485        0.863581        -3.30659
LJ          -4.92698        -2.88837         5.29999
LJ          -4.38941        0.192205        -2.49498
LJ         -0.927085         3.31385         3.38502
LJ          -1.56002        -2.95886         1.25344
LJ         -0.429533         1.29093        0.269953
LJ           6.12591        0.451033         4.09351
LJ           1.35236         1.30557        -3.81767
LJ          -1.55912        0.176406         1.04465
LJ          -1.03423       -0.508474        -3.35087
LJ           -2.3197       -0.689053       -0.730325
LJ           5.06334        0.707819        0.594817
LJ          -1.50587          1.5975         5.27206
LJ          -4.71404        -5.80368        -5.45161
LJ           -3.8207        0.715277         4.41983
LJ          -3.79511         3.91745         6.12718
LJ           2.94912        -1.66852         5.79869
LJ          -2.20555         2.34707       -0.430039
LJ           1.78947         1.19164         -6.3987
LJ           1.98284         -4.2124        -4.80157
LJ         -0.206043        -2.30364         5.57166
LJ           2.93401         3.90699        -3.92014
LJ           6.26314        -2.48182        -3.72561
LJ          -3.09643         1.57153        -6.27833
LJ         -0.282766         4.92624         2.19996
LJ          -6.44891        -4.41167       0.0935913
LJ         -0.842945        -4.39396        -2.17704
LJ           0.68398        -2.23985      -0.0159886
LJ          -6.09515        0.727973         3.29582
LJ         -0.343988        -4.55853         2.65018
LJ             1.862        -5.37913       -0.327711
LJ           1.79785        -2.35066        -5.71831
LJ          -1.35595       -0.420283         5.61752
LJ           4.55943        0.438962         5.86406
LJ           5.13534         5.09613         1.62623
LJ           4.12802          2.0568         4.01242
LJ           1.60348        -1.52902        0.270103
LJ           -1.1292        -4.28695         2.79912
LJ          -4.63634         5.64171         4.27322
LJ            3.6335         2.52578        -2.56562
LJ          -5.54708        -2.61176         4.24326
LJ            1.0741         5.05725         6.30249
LJ          -1.73509        -4.40879         2.49502
LJ          -5.26859         2.40963        -5.06729
LJ          -4.38268        0.518351         0.59057
LJ           4.62498         4.95587        -1.47718
LJ            3.5241        -5.17166       -0.431321
LJ           -5.0186        -2.00079       -0.847964
LJ           4.31747        0.353619         1.73217
LJ         -0.681743        -1.67298        -2.55578
LJ           5.15308         4.38433        -3.28554
LJ           3.31864      -0.0317276         2.97226
LJ          0.286729         2.59059        0.580026
LJ           2.78345         -5.6434         3.30988
LJ          -2.50716        -1.23095        -1.54016
LJ         0.0605901         3.19868        0.747948
LJ          -4.45935        -2.28368          -5.428
LJ          -4.82693         -2.1772        -2.92166
LJ           5.17291         2.59527        -6.16157
LJ           5.48089         3.90761         2.17772
LJ         -0.817666         3.47144         4.13343
LJ         -0.739112         1.69783       -0.875534
LJ          0.489429         2.31181       -0.048982
LJ          -4.11177         1.65889        -2.56492
LJ          -1.08394        -4.84179         4.35007
LJ           3.38263       -0.858534         1.22401
LJ           1.68245        -4.38494         4.71873
LJ           1.05888        -1.57349        -1.63008
LJ          0.519529         4.57227         3.54487
LJ          0.429767         -3.1346         4.26858
LJ          -6.17522         4.29487         5.87489
LJ           -3.8851        -5.64489          1.0921
LJ         -0.658554         1.63399         2.34718
LJ          0.396272        -5.31786        -5.64856
LJ          -2.88074        -4.60171         6.22344
LJ           2.14528         2.49008        0.354103
LJ           6.45438         3.12777        -2.68539
LJ         -0.538516        -5.88647        -3.45774
LJ           1.66664         5.86212        -4.56022
LJ           1.91184         2.81227        -6.15889
LJ          -5.99498        -2.23375         3.84249
LJ           0.18053         3.34355        -4.85282
LJ          -6.04855         3.63774          4.6014
LJ         -0.152435        0.918072         3.43886
LJ          -5.42368          1.4558         2.60131
LJ          0.665124        0.361568          6.3251
LJ           2.23617        -5.30308         2.35628
