108
#Comment!
LJ           -3.5535        -3.58622        -3.18161
LJ           -1.9393        -2.20644        -3.11938
LJ          -3.01473        -2.01608        -2.46153
LJ          -1.10456        -4.17917        -1.51916
LJ         -0.334337         -3.3375        -3.05108
LJ           1.01272        -2.47978        -4.04601
LJ          -1.37257        -1.85947        -1.47284
LJ        -0.0602826        -2.53436        -2.09669
LJ           2.64194        -3.10084        -3.65329
LJ           1.30887        -2.08157        -2.27299
LJ          0.621763        -3.56469        -3.11511
LJ           1.43341        -3.12936        -1.58205
LJ          -3.73487        -1.16943         -2.0705
LJ          -1.77208       0.0486587        -3.26077
LJ          -2.64372         1.01758        -1.77711
LJ          -2.60193        -1.88543        -1.30079
LJ         -0.279843       -0.620088         -2.3459
LJ        -0.0810422        -1.08896         -3.5748
LJ          -1.15625       0.0310983        -1.83323
LJ          0.465722       -0.604481         -1.6048
LJ           1.19948        -1.08344        -3.04091
LJ            1.1826        0.580013        -2.11756
LJ           1.43977       -0.394787        -1.45096
LJ           3.39039       -0.848192        -1.46633
LJ          -3.67531        0.812932        -3.70316
LJ          -3.44267         2.02335        -3.20876
LJ          -3.30014         1.03123        -2.60996
LJ          -1.72041         1.15357        -2.43374
LJ          -2.11807         1.34475        -3.89233
LJ          -0.81655         1.81881        -3.42013
LJ          -1.88607         2.24636        -2.88021
LJ         -0.487152         1.09438        -2.12645
LJ          0.154135        0.407622         -1.7123
LJ           1.02774         1.61959           -3.18
LJ          0.155549         2.20532        -2.37175
LJ           2.02426         1.64309        -2.05468
LJ          -2.34513        -4.02255       -0.250593
LJ          -1.83504        -3.08308        -1.21275
LJ          -3.46933        -3.76182       0.0356511
LJ          -1.87602        -2.08795        0.210936
LJ         -0.360215        -2.91584       -0.986797
LJ         -0.369882        -1.33015        -1.63195
LJ           -1.9881        -1.17706       -0.774177
LJ       -0.00567938        -2.51071       0.0147601
LJ          0.793925        -2.49359        -1.28911
LJ             3.626        -1.29082        -0.44161
LJ           1.18805         -2.0151       -0.427606
LJ           1.03088        -2.91727        0.532114
LJ          -3.42166     0.000521929        -1.98421
LJ          -2.03441        0.169859         -1.1786
LJ          -4.56079        0.517983        0.117714
LJ          -3.05629        -1.02578       -0.824689
LJ          0.150277        -2.02748        -3.21625
LJ         -0.510029        0.652356        -1.12091
LJ         -0.477109       -0.432985       0.0366451
LJ          0.180627         -1.5336        0.285758
LJ           2.51779        -1.70361        -1.20172
LJ           2.30137        0.501373        -1.65479
LJ         0.0140255       -0.700116       -0.765305
LJ           1.04466       -0.902113       -0.458844
LJ          -3.23432          1.6872       -0.477134
LJ          -1.12495         1.67958        -1.78966
LJ          -4.52807         3.02791       -0.353198
LJ          -2.48148       0.0223483       -0.352806
LJ          -1.14691        0.272935        -0.35408
LJ         -0.233255         2.22971        -1.29493
LJ          -1.22278         1.31075       -0.399839
LJ           0.17948         1.85648       -0.354716
LJ          0.995656        0.966882        -1.20594
LJ           1.21092         3.00337       -0.512262
LJ          0.596038         1.48509        0.651709
LJ           1.93731         2.05952       -0.152555
LJ          -2.53146        -2.67957        0.844282
LJ          -2.17583        -1.83945         1.75753
LJ          -2.91563        -1.08478          2.7678
LJ          -2.49344        -3.84318         1.60526
LJ          0.241235        -3.88965         1.95426
LJ         -0.639258        -2.72574        0.841023
LJ         -0.164933       -0.809692         2.65339
LJ          0.806216        -3.02977         2.01408
LJ           0.61687        -3.71848         1.01511
LJ           2.33845        -2.21624        0.600908
LJ           1.54854        -2.59819         1.40409
LJ           1.71263        -3.48154         1.96346
LJ          -3.11885        -1.00109        0.585567
LJ          -3.21132       0.0582694        0.481364
LJ          -2.41995        0.763125         1.95224
LJ          -2.32416       -0.787224         1.63999
LJ          -2.10183        0.138411        0.754587
LJ         -0.520324        -0.57739          1.4402
LJ          -1.47016       -0.511362          2.1561
LJ            1.0001        -1.18751         3.63213
LJ           1.19675        -1.90986        0.644505
LJ           2.31652         1.13085       0.0451242
LJ           1.84796         1.03062           2.314
LJ           1.91074       -0.617303         1.01587
LJ          -2.77774         1.16566        0.419874
LJ          -2.16168         2.45722        0.951589
LJ          -2.19824        0.983505          3.1137
LJ          -1.59577         1.45961          1.0899
LJ         -0.225222        0.491477         1.50816
LJ          0.212069         2.83771        0.971329
LJ         -0.626245         1.91872         2.80533
LJ         -0.608286        0.659718         3.00189
LJ           1.67098          1.4895         1.03176
LJ           2.83144         1.32528         1.32665
LJ          0.555867        0.770352          2.4791
LJ           2.85573        0.837932         2.83869
