108
#Comment!
LJ          0.427653        0.450204        -2.90518
LJ           6.14093       -0.108549        -6.34173
LJ           5.62248      -0.0181094        0.203503
LJ           4.87088         4.39494        -3.03169
LJ           5.57361         3.10417        -2.71867
LJ           5.88091         1.81333          1.0978
LJ          -1.61766        -1.15171         1.69258
LJ           2.67216       -0.867753        -3.84366
LJ          -4.14478         5.61292         3.82364
LJ          -3.08951        -3.86806        -4.88355
LJ          0.541111         2.71014         -5.6399
LJ          -4.34356         5.34684       -0.826882
LJ           3.12267        -3.61316       0.0178486
LJ         -0.806452        -5.38998        -4.42498
LJ         -0.659547         4.59835        -4.04371
LJ          -2.97604        0.193337         3.69871
LJ          -5.21377        -1.23651        -4.98776
LJ       -0.00355698        -2.81994         5.91703
LJ          -2.69234        -1.20013         -3.3489
LJ           6.39706         -2.1732         3.20222
LJ          -1.60702        -3.57968        -4.85067
LJ           2.78835        -5.97988         3.05793
LJ           5.37187         2.40223         3.23066
LJ          -1.29592         6.14063         2.63945
LJ          -5.74816         1.00469         2.37269
LJ          -5.47448        -3.59783         2.98666
LJ           6.25816        -3.68664         2.49587
LJ          -4.04741         1.57855         5.34685
LJ           1.02517         2.24924         2.62623
LJ          0.163466         -2.5534         1.02428
LJ           1.15182         4.95073        -4.28929
LJ           3.03623        -4.96398         3.44891
LJ           5.28233          4.3573         4.92348
LJ          0.900342        -5.27112         -3.9516
LJ            5.5552         1.92952         2.22455
LJ           2.18552       -0.816862      -0.0251673
LJ          -2.28575        -5.21148        -6.27949
LJ         -0.472933       -0.595721         1.78517
LJ          -2.32078       -0.762337         2.40191
LJ          -6.05067         3.31333       -0.787097
LJ           4.27527        -1.23226        -1.48076
LJ           4.74689        -3.29468         5.54392
LJ          -3.21817         1.21661        -1.36448
LJ          -2.10766        -1.91493         2.60788
LJ          0.418159        -1.20342         2.90165
LJ          -5.00312         1.38668         3.35484
LJ           6.08861        -1.86357        -2.64074
LJ          -3.50719         -2.4008        -4.47947
LJ           3.55172        -4.03761        -6.16027
LJ           4.40609       -0.148736          2.8538
LJ          -3.39771        -1.56926         2.35801
LJ          -1.04274         3.06891        -4.41171
LJ           -6.2505        -3.43668         1.21003
LJ            3.9054          2.7194        0.378915
LJ         0.0764419         4.75681        -2.21284
LJ          -1.80427        -4.17394         6.31042
LJ          -4.71739         1.93362        -2.24093
LJ           -5.1587         2.74491        -3.75215
LJ          -5.78861         6.17031         3.80221
LJ           2.35394        -2.15626       0.0529818
LJ          -4.14383        -2.68162          5.5555
LJ          -2.23893         5.13655         4.72102
LJ            5.5218         1.60147        -3.79149
LJ          -5.89332         2.40613        0.983663
LJ          -5.71743         4.42431       -0.350112
LJ           3.10614         -5.7068        -5.28623
LJ          -5.11613         2.99692        0.385381
LJ           2.60452         2.57753         4.38174
LJ           3.62143        -1.95915         -2.0719
LJ           4.14162          3.0869         2.17275
LJ         -0.867426        0.410012         1.90078
LJ          0.526124       -0.626491        0.596795
LJ           -2.3301        -3.33453        -1.83131
LJ          -2.67528        -2.77988         1.59649
LJ          -6.03226         5.80594         4.73446
LJ           4.55733         1.20315         1.25549
LJ          0.574116        -4.55646       -0.396298
LJ          -1.07794        -2.62588         3.03193
LJ           4.15844         5.93754        -5.09491
LJ          -2.70149        -2.91929         3.04162
LJ          0.416783       -0.901519         4.30166
LJ           3.70348        -2.96579         -1.8619
LJ           2.35468      -0.0487811        -0.91064
LJ          -1.04577        -1.32209         2.60508
LJ           4.88748        -5.68811        -4.25519
LJ          -5.46274         0.90769         1.19595
LJ          -0.32893         0.95222         2.70438
LJ          -1.48499        -2.34721        -3.17339
LJ           4.20149         -2.5354        -2.77078
LJ           0.65128        -6.03855         4.65749
LJ           5.38403         5.29551         4.70994
LJ            6.0383     -0.00244809         -1.5087
LJ           3.20333         3.91716        -2.97983
LJ           2.77659         2.52117       -0.387923
LJ           -6.2656         4.21608        -1.79588
LJ           4.17421        -2.31252        -1.15405
LJ          -5.17321       -0.109579         1.97133
LJ          -3.52811         5.46175        -3.62194
LJ         -0.827572        -3.24282       -0.973027
LJ           -4.9544         3.45868        -1.74803
LJ          0.300099          1.3784          1.6737
LJ           2.48463        -1.24093        -1.07874
LJ            2.4587      -0.0341021        -6.26585
LJ         -0.488489         1.41974        0.872206
LJ           4.77532         1.10387         2.58712
LJ           3.43872         2.17646         1.13126
LJ          -5.44811       -0.892733        -2.74504
LJ           5.18724         1.69131         4.07937
