108
#Comment!
LJ            1.9996        0.174199        -3.22277
LJ           4.87512        -1.04439       -0.366156
LJ           1.42755         -1.3619         1.54753
LJ           5.13181         4.55705          2.4537
LJ          -2.16861        -3.76717         4.15012
LJ           3.20543         6.20086        0.818974
LJ          -1.37407       -0.964544         5.30626
LJ            5.5695         -1.8952        -3.00691
LJ           1.33368        -5.11238        0.822155
LJ          -4.99233       -0.333175        -5.40716
LJ          -6.03255       -0.898314        -6.18078
LJ          -4.10613        0.177871          -1.807
LJ          0.418003         2.70977        -2.48983
LJ          -5.93235         2.32581         1.32092
LJ          -1.94464        0.528741        -5.56403
LJ         -0.231329        -4.93266        0.064454
LJ            1.7354        -5.47931         5.66798
LJ          -1.57678        0.872931         -4.0236
LJ          -4.54564        -2.06638          4.4307
LJ           -3.2111        0.141309        -5.23335
LJ          -2.32955       -0.519054         2.73536
LJ           4.06391         6.31957         1.34541
LJ          -5.14762        0.598207        -3.67249
LJ           1.30875        -5.69056         3.84377
LJ          -1.67409        -4.79188         2.05125
LJ           5.14992        -4.01491        -4.33978
LJ          -5.00464         3.11389        -3.10393
LJ          -5.82853        -2.61167        -4.15344
LJ           1.36487        -3.34981       0.0429197
LJ           1.53033       -0.470012         6.29544
LJ           2.21119         3.53315         -3.3379
LJ           4.81927        -5.47632        -1.06121
LJ           5.97099        -1.95872         4.68817
LJ           3.82755        -1.22661       -0.458915
LJ           4.27505         5.40037        0.653183
LJ          0.312707        -0.72873         6.21781
LJ          0.135038          5.7049         3.68687
LJ          -5.14678        0.235105         2.47173
LJ          -3.89733        -1.52265         6.41551
LJ           5.95473         4.58646       -0.609949
LJ           1.03685        -4.58741        -5.29319
LJ          -3.79099         6.16232         5.46895
LJ         -0.758445         -4.9575         -3.8825
LJ          -5.17908        0.505443         1.10482
LJ          -4.10042        -4.56997        -4.28596
LJ           5.33929         3.23905        0.798059
LJ          -6.03612        -2.48858         1.15571
LJ          -1.85533         1.66585          6.4172
LJ         -0.229414        0.330155         4.77186
LJ           5.67165        -3.05604        -3.58585
LJ         0.0891593        -4.36341        -0.75345
LJ          -1.31482        -4.35538        -1.31533
LJ         -0.519049        0.218563        -1.64916
LJ           3.30594         6.23069        -1.03859
LJ            4.4782        -5.30273        -3.57511
LJ           5.48238          4.5728         5.12125
LJ          0.396582         3.92739        -4.64504
LJ          -3.33826         6.07033       -0.920581
LJ           0.78667        -2.26256          1.3155
LJ            5.6754         3.19463       -0.500549
LJ           1.76077       -0.051328         3.07694
LJ          -3.27484         4.62337         5.01475
LJ          -6.40022         4.38544         5.48016
LJ           3.83779         5.78273         2.63225
LJ          -6.14258        -4.59169         3.47754
LJ           3.54125        -4.49198        -4.08528
LJ             4.531        -1.59395        -2.40884
LJ          0.499988         1.69013       -0.850115
LJ           5.84657        -1.19292        -2.04677
LJ         -0.846615         4.52668         4.45416
LJ          -3.85153       -0.188383         1.73029
LJ          -5.67494       -0.682826         5.84315
LJ           6.41467        -1.18373     -0.00867069
LJ           1.65795        -5.81954        -6.10043
LJ          -2.44753        -1.40239        -2.97952
LJ           3.00758         2.92316        -4.78875
LJ          -4.78313        -3.73237        -1.32211
LJ         -0.294895        -1.30338         5.26337
LJ          -2.41022        -6.13795        -5.06981
LJ         -0.134152         -2.8701         -6.0989
LJ          -1.69997        -2.34312         -2.0061
LJ           6.18199       -0.153849        -2.18922
LJ           3.17251         3.35692        -3.75469
LJ          -3.70251       -0.246268          3.7574
LJ          -2.63717         3.71266         4.67682
LJ          -3.88779       -0.459785       -0.956926
LJ          -3.11449        -1.16829         1.82643
LJ           5.12572       -0.175017         3.50988
LJ           3.74289     -0.00859682       -0.942616
LJ         -0.457258         3.40279        -2.65525
LJ          -4.74303         2.81068         5.39674
LJ           4.94508       -0.647946        -2.69071
LJ           1.09035         5.05047          5.1432
LJ           2.68121         2.01661         3.75316
LJ          -2.71224        -5.84051        -6.39652
LJ           5.36084        -0.24046        -1.58807
LJ          -1.62488       -0.169799         3.95455
LJ         -0.389818        -2.24155       -0.600535
LJ        -0.0363484         5.50555         4.85365
LJ           2.28963         3.24381       -0.405182
LJ          -3.00852        0.764411         3.02494
LJ           4.62545       -0.430111        0.910397
LJ           4.19514         1.20922        -1.21536
LJ          -3.64067       -0.767854        0.769361
LJ          -5.57052         4.54211       -0.207325
LJ           3.62484         2.01882         4.22098
LJ             1.263        -5.83862        -1.36684
LJ          -6.06356        0.807962        -4.34473
