108
#Comment!
LJ        -0.0689102        -6.15402         5.37711
LJ           1.98804         1.86144        -2.97366
LJ          -3.11424        -1.70342         5.36357
LJ           1.37231         5.75174        0.248648
LJ           2.25572         1.95008        -4.28975
LJ           4.62349         5.80486        0.652555
LJ          -4.69894         5.50513       -0.354438
LJ         -0.574635         2.58487        -3.02919
LJ          -4.85257         -3.9936         2.40518
LJ          -4.02729        -6.45951        -5.45936
LJ           4.02119         5.36264       0.0848009
LJ          -4.95529        -4.09094       0.0686966
LJ           4.62865        -2.11911         4.62144
LJ           6.02218         3.48584        0.998979
LJ           5.56048        0.381388         1.89673
LJ           5.98017         5.31352        -2.70849
LJ           4.74278         2.97925         1.63289
LJ            2.2517         2.65137         3.42813
LJ          0.374867         5.69137        -1.41439
LJ          -1.30866         3.18966         4.72657
LJ          -3.58605        -5.26995        -1.53458
LJ          -5.80768       -0.185113        -4.67151
LJ          -1.60886        0.961587      -0.0764683
LJ           5.09523           3.183         5.62414
LJ         -0.667016         -4.4393        -5.64185
LJ           1.73209         4.19295         5.53364
LJ          -2.22342        -3.55171        -3.12973
LJ          -2.66129         6.11613        -5.81961
LJ           1.82333         2.84246         3.06293
LJ           5.88175        -3.29265        -2.86317
LJ           1.14956        -2.57739         3.62758
LJ          -4.02543         4.67739         3.05557
LJ          -2.25443        -1.85606         3.82555
LJ         -0.724919         2.22015         1.20765
LJ          -4.73925           4.465         3.58058
LJ          -1.84148        -5.06587        -3.29945
LJ           5.69433         5.75274       -0.406458
LJ          -5.13592        0.430008         1.77927
LJ           3.60264        -2.34535        -3.71117
LJ           2.09324         4.12828        -4.18956
LJ          0.344364         5.37064        -1.53321
LJ         -0.197934         3.42083       -0.741561
LJ            5.5979         5.85083         4.46182
LJ          0.211547         1.70015        -6.40828
LJ            5.7335        -6.22575       0.0736037
LJ           1.23036        -3.88592         1.20302
LJ           4.96075        -3.57401         4.27311
LJ            5.3344        0.054097        0.830408
LJ          -4.87298         -4.3569        -0.77876
LJ          -1.58772         5.92377        -4.56012
LJ           4.92221         2.13024         1.28159
LJ          -3.16001        -2.68592         1.89944
LJ          -6.20947        0.497997        -1.67257
LJ           2.62526         -2.8969        -3.25347
LJ          -3.88081        -4.59621         4.68668
LJ          -1.39408         5.41275        -1.17199
LJ          -4.97727       -0.179696        -6.31956
LJ           5.64851         3.93397         4.05577
LJ          -1.42656        -5.16613           3.634
LJ          -2.24257         2.37623         3.60053
LJ            6.2128         1.19404        -5.67919
LJ           4.99566        0.114138         4.41988
LJ          -2.38886        -5.94353        -5.83221
LJ        -0.0192859        -5.97567         2.34926
LJ            3.9778       -0.624853       -0.815625
LJ           4.52053         4.51316        0.409445
LJ          -2.50632          5.1738        -6.33837
LJ           5.24775         6.13224         3.35172
LJ          -4.49567        0.986389         2.01627
LJ           -4.1634        -5.11333         2.98501
LJ           -4.6888        -2.84657         3.18838
LJ           3.65571         1.50739        0.782431
LJ          -5.57576        -4.12175        -0.13487
LJ          -0.23654        -4.51855         2.04115
LJ          -2.74221        0.901296          4.0015
LJ           5.59424         2.51842       -0.988438
LJ           3.02069       -0.445103        0.909412
LJ           4.93152         0.86005        -4.33612
LJ          -5.49497        -2.27067        0.576516
LJ           2.51114        -3.07794         4.82571
LJ          -0.67241        -3.34263        -6.12996
LJ           3.84523         3.37565         4.75908
LJ          -5.97067         -2.4886        -5.89455
LJ          -5.95168        -2.46391        -3.49386
LJ          -4.61371        -1.68583        -1.08449
LJ          -3.46579         4.35941        -2.10607
LJ          0.217329          5.7524         0.65818
LJ           4.79959         4.24429        -5.84182
LJ           3.63462        -5.89789        -4.15844
LJ           5.86488        0.105742        -4.36339
LJ          -3.02786         1.77536        -4.69116
LJ          -2.80054        -3.27049        -1.44662
LJ          -4.71939        -4.69462         4.26517
LJ           1.36532        -3.81632        -5.70665
LJ           5.11441          5.5889        -1.04233
LJ          -6.03587         -4.7262         3.57446
LJ          -4.41448       -0.701946        -5.67122
LJ           4.30121        -1.67618        -3.57052
LJ          -2.15728         5.56845        -1.13166
LJ          -5.85868         3.06972         5.44071
LJ           2.56643        -5.01189      -0.0250012
LJ           5.03609        0.520903        -6.25787
LJ           6.16193         3.73551         -6.1112
LJ           3.79458        -3.77003         3.52752
LJ          -0.72428        -1.49813       -0.133104
LJ          -3.10974       -0.700491        -1.89329
LJ           -6.4059         4.22468        0.875947
LJ          -1.02755        -4.82128        -5.99182
