108
#Comment!
LJ           2.87812        -3.84897        -5.40879
LJ            2.0898        -5.01662         3.06246
LJ          -1.19311         5.70572         -2.0289
LJ           3.42075        -4.43234         3.69247
LJ          0.281957         4.93848        0.844155
LJ           2.82685        -4.23053         2.36822
LJ         -0.737743         6.39608         0.23228
LJ         -0.636697         -5.1486        -1.70554
LJ           4.94642         3.85197         -1.3243
LJ           5.29078         1.48643          5.3635
LJ          -2.00345        -6.17589         2.73173
LJ           2.14333         1.72861        -2.96226
LJ          -5.06229         6.24735        -3.94621
LJ          -6.35387         3.85342         2.85444
LJ          -2.10281         4.92648          6.1041
LJ          -4.64617         1.55294        -5.42057
LJ           4.09838         5.24441        -3.41754
LJ          -3.90513        -6.22713         1.88782
LJ           4.05934        -3.93328        -4.80322
LJ           5.64503        -3.00319         4.80425
LJ           2.80701         2.79635        -5.53236
LJ          -1.32724        -0.71662       -0.490565
LJ         -0.530244          4.3262        -1.15127
LJ          -4.51289        -1.36325        0.995094
LJ          -1.09999         5.65025         1.22541
LJ           2.23192         1.77423         -3.9706
LJ          -1.92214          2.1838         3.13897
LJ           4.65989        -3.43444         2.18678
LJ          -5.72091         -1.0809        -3.48005
LJ          -6.31489         1.79909        -4.29031
LJ          -2.63085         6.37851        -1.74667
LJ           3.72749        -5.33841         4.01468
LJ           0.74855         4.28756        -5.43104
LJ          -5.81018        -2.86042         3.77612
LJ          -1.00037        0.149603         2.02124
LJ          -5.57032         2.89742        0.588039
LJ           3.68294          1.8615       -0.619021
LJ           -3.8558        -3.76279        -1.24533
LJ         -0.665626         4.11945        -3.95559
LJ           -1.7243        -2.66099        -1.09754
LJ          -3.62977         3.12884         1.63078
LJ          0.991314         4.29687        -6.44669
LJ         -0.103494        -1.37878        -5.46531
LJ          -3.62336         4.23596         5.42091
LJ            1.2653         -2.2665         4.59586
LJ           6.12247         3.66259         5.73182
LJ          -1.49797         6.13117          1.7968
LJ          0.883096         5.64698        -2.92031
LJ         -0.264689        -4.62504        -3.32338
LJ           5.43605      -0.0784729        -5.17027
LJ           4.43124         1.04927        0.122125
LJ           -2.4732        -0.52613         4.96221
LJ          -5.10333        -3.24529         3.95843
LJ           1.94616         3.12268         4.74946
LJ           1.35067        -5.07078         6.19745
LJ          -4.00379        -2.53027          4.6363
LJ          -5.90441         2.61868         3.22657
LJ          -4.46764         4.78869        -2.82209
LJ           1.72702         1.02336         1.68862
LJ           6.17995        -2.34034        -3.67532
LJ           5.46728       -0.756845        -6.25989
LJ           4.23508      -0.0575818         6.37358
LJ         -0.434502        -2.68395         -2.1294
LJ           4.83172         3.00331         4.54813
LJ          -5.80364        -1.64365         3.72789
LJ           1.01481        -3.05906        -5.45217
LJ          -1.27927          1.4442        -2.05718
LJ           1.92117         3.86575         5.69786
LJ          -6.01446        -3.90249        -6.31213
LJ         0.0923672        -3.69995          1.8904
LJ           4.83168        -1.67114        -5.57768
LJ          -5.91904        0.417772        -4.27509
LJ           2.50513         2.72255         5.38493
LJ           2.13881        -6.11583         1.73478
LJ          -3.58778       0.0698807        -3.81901
LJ          -3.89165         3.85168          6.2322
LJ           -1.6727        -4.98656       -0.581717
LJ         -0.320998        0.456313         1.05639
LJ          -2.08322         6.40877        -5.67934
LJ          -3.82909        0.775806         2.94577
LJ          -4.35664         4.33285         1.80623
LJ           1.96114        0.929524         3.06732
LJ           0.70271          4.3855        -1.53589
LJ          -5.13428         1.36243         3.12954
LJ          -3.17587      -0.0608964       -0.197044
LJ          -2.51941         2.88181         -4.0833
LJ          -1.52359        -2.93369         -1.9631
LJ          -2.21467        0.841288         3.29606
LJ          0.893332         2.86189         1.63323
LJ           4.11781         5.49739        -5.98047
LJ          -2.95957        -1.67457        -2.12267
LJ           3.68892        -4.75695        0.706979
LJ           4.04212        -6.41192         5.76715
LJ           1.75357         2.37578         2.12745
LJ           4.64184        -4.77311        -2.74189
LJ           1.19205         6.21285          6.2312
LJ           1.59458         6.32767        -6.01781
LJ          -2.33652        -4.32733         1.04594
LJ         -0.924338        -4.16551       -0.616337
LJ           -4.1211         2.21881         1.95853
LJ          -2.79518        -2.07937        -5.92538
LJ          -3.91552         1.67908         4.71386
LJ           -3.9013         1.41115        -4.31983
LJ          -2.42689        -5.42992        -4.05507
LJ          -5.16038         2.30988         3.12523
LJ          -2.21478        -1.48022         3.66977
LJ          -2.80956        -3.75323         4.04079
LJ           3.52417         6.36659        -2.47895
