108
#Comment!
LJ          0.966876        0.373396        -2.57439
LJ           4.19526        -1.15699         3.92497
LJ           3.70112        0.360114        0.430896
LJ           4.65219         2.34379          0.3698
LJ          -4.22368        -5.72117        -5.14732
LJ           3.90141         3.56113        0.647135
LJ          -2.94088        -0.47176         3.86709
LJ           4.26777        -1.91201        -4.24512
LJ          -2.42799          2.8756         2.12765
LJ          -3.65951       -0.356225        -6.01039
LJ          -2.40456         0.24413        -5.32408
LJ          -3.35847         3.62718        0.774301
LJ           1.18338        -6.40715       -0.662472
LJ          -3.87031         -2.2257       -0.772753
LJ          -1.83088         1.84903        -5.19796
LJ          -1.02593        -2.40682         3.05932
LJ         -0.947582         -3.3111         6.38305
LJ          -0.73686         5.41438        -5.23674
LJ          -2.41287        -2.87841        -5.67138
LJ          -4.08044         5.27173        -6.26149
LJ          -2.26833         1.32676         1.18939
LJ           3.53716         5.70163        0.916625
LJ           6.08075         1.18293        -6.23459
LJ           1.04622         -4.0051         2.47751
LJ          -3.03044        -1.88409         0.10983
LJ           6.15123         6.08138        -1.08497
LJ          -5.49234        -6.33865       -0.682722
LJ            -5.079       -0.707005        -5.20078
LJ          0.716259         5.54501         1.21534
LJ           1.31092       -0.364399          3.6519
LJ           1.61729         4.22354        -4.19398
LJ           3.31491         6.19873         -0.2066
LJ            5.3516         -0.5385          4.5887
LJ           3.59054        -2.74597        -2.15725
LJ           5.43401         4.93464         1.85508
LJ         -0.258808         -1.3716        -4.22469
LJ          -3.88826        -6.45842         5.08394
LJ          -3.97662       -0.186835         1.80912
LJ          -1.29432       -0.562814         5.38107
LJ          -5.59653         4.52929       -0.773648
LJ            5.6467        -3.00104        -2.45305
LJ           1.05522        -4.56253         4.10719
LJ         0.0943977        -2.40598        -1.41668
LJ          -2.95766       -0.256144         2.34223
LJ           4.58366         3.58281         5.62875
LJ            5.7658        0.672851       0.0679632
LJ          -5.12557        -3.39138         -2.5941
LJ          -3.37562       -0.921068         6.03636
LJ           2.98699        -1.39931         5.13024
LJ           4.96135         0.32044        -2.68763
LJ          -1.91812        -3.53038        0.291445
LJ          -2.66414         6.40343        -3.24235
LJ          -3.47692         5.64311        -2.62874
LJ           3.47713         4.82406       0.0308751
LJ           2.09513         5.74204        -2.16514
LJ          -3.28717         5.72375         5.71503
LJ           4.28142         3.11935        -3.57221
LJ          -4.32084         4.70552        -2.35185
LJ           3.42275         -5.0783        0.310921
LJ          -3.50584        -5.86102       -0.661657
LJ          -2.03851        0.159416         6.38364
LJ          -2.91667         4.08719         2.04674
LJ          -5.34653         5.95823         6.23607
LJ           4.59114         6.37932         1.09826
LJ           5.94063          6.1955         1.88295
LJ           3.20972         6.38478        -1.34686
LJ           3.83811        -2.85654       -0.423139
LJ           1.58862         2.75658         -4.5838
LJ           5.53878        -1.79964        -2.65924
LJ            2.1211         3.55118         2.65308
LJ          -1.14958         1.22185         1.33481
LJ          -3.61093        -1.19474         1.93764
LJ          -6.07845        -3.84885        -2.49578
LJ          -2.02208        -3.67451         5.96378
LJ          -4.76006        -3.24658        -3.84966
LJ           1.89867        -1.74724       -0.414347
LJ           4.29958         2.30832         5.91941
LJ          -1.82757        -1.93284         4.43012
LJ          -5.51282        -6.43072        -4.02146
LJ          -2.51587        -4.00191        -6.04421
LJ          0.573921       -0.618726        -5.09262
LJ           4.09122        -1.55905        -2.95004
LJ           3.45651       0.0609132        -1.03663
LJ          -2.20218       -0.854456         4.84839
LJ          0.970837         4.95506        -6.12782
LJ          -3.71614       -0.505663        0.393191
LJ          -1.61345         1.26267         2.35119
LJ          -4.92658         4.08984        -6.32178
LJ           3.78542        -1.43255        -1.52295
LJ           1.86551         5.55657       -0.572088
LJ          -5.40113         4.24861         4.32843
LJ           6.05494       -0.149849        -2.47905
LJ          -5.08805         4.85482         -4.6607
LJ           1.90356         1.51946        0.701135
LJ          -4.49402         -5.9579        -3.68416
LJ           4.45602        -2.43315        -1.76474
LJ          -2.71082        -1.68461         3.24023
LJ         -0.900735         -5.1562         4.24249
LJ         -0.771312        -4.52938        -5.10171
LJ           6.18489         4.90426        -1.18936
LJ          -2.10634        0.249258         1.30947
LJ           2.41523        0.333397       -0.280089
LJ           3.72599        0.909333        -3.89792
LJ          -1.15437        0.383867        0.368433
LJ          -6.13975         2.84555          1.5692
LJ           4.48315         3.76063         1.80971
LJ          -2.68596        -3.50366        -2.08028
LJ          -5.71985         1.46138         6.27512
