108
#Comment!
LJ           1.01921         1.75975        -4.44062
LJ          -6.04873        0.490366        -5.11317
LJ           6.34144       -0.205876      -0.0458121
LJ           3.46886         5.41276        -5.34694
LJ           3.90813        0.100763         -1.2788
LJ           6.45612           2.657         1.22935
LJ          -0.63815        -1.75364         1.00329
LJ           1.60773       -0.421711        -3.81378
LJ          -3.62425        -6.11412         5.48485
LJ          -1.57644        -4.31656        -5.06836
LJ           1.69013         3.81071        -5.56027
LJ          -5.58856         6.06343        -1.47585
LJ             4.309         -1.5992       0.0112983
LJ           0.45193         6.37136        -5.28207
LJ        -0.0948886         4.90467        -3.16159
LJ          -4.63493          1.9244         2.06106
LJ           5.13316        -1.36233        -4.56249
LJ       -0.00736517        -1.71686         5.73899
LJ          -2.97886        -0.95932        -2.28378
LJ           4.38151        -1.06611          1.6881
LJ         -0.872703        -3.37171        -4.52913
LJ           2.14048        -4.31043         4.41623
LJ           4.62435         2.90543         2.96072
LJ           -2.9074         3.78044           3.552
LJ          -5.79797        0.511515         3.49839
LJ          -6.10664        -1.61854         4.45283
LJ          -6.27049        -2.70419         4.68517
LJ          -3.40843          3.0113         4.76406
LJ           2.68077         2.10839         4.15658
LJ           2.05392        -6.36861        0.604358
LJ          0.494155         5.14507        -3.98658
LJ           2.72544        -4.43685         5.35886
LJ            5.2991         2.51923         5.84825
LJ         -0.672468         6.21613        -4.62672
LJ           5.94649        -1.25794         4.42839
LJ           3.37963       -0.820773        0.103479
LJ          -2.81515         6.31357          5.6692
LJ          0.240713       -0.799126         1.36551
LJ          -2.09535        0.569021         1.35292
LJ          -5.49246          1.5873       -0.877177
LJ           3.34714         -1.2244        -1.10334
LJ          -6.46151        -2.71387         6.33824
LJ          -4.88219         3.07491       -0.364133
LJ          -1.46068        -2.79114          1.5353
LJ          0.894354         -2.4117        0.846679
LJ          -4.79538         1.98409         3.61454
LJ           4.59024       -0.511478        -2.50986
LJ          -2.85073         -2.6639        -2.55005
LJ           4.62404        -3.79701         -5.2441
LJ           4.90374        0.258409        -0.41713
LJ          -4.85624        0.384744          2.1477
LJ          0.900444          2.1006        -5.38397
LJ            5.1575       -0.981407         3.52328
LJ           5.32181         1.32224       0.0453272
LJ          -1.01456         4.19442        -2.57288
LJ           -1.2853        -3.24107         6.08996
LJ          -3.07543        0.587857        -3.34962
LJ          -5.88825         1.82444        -3.85039
LJ           -4.5262        -5.64321         2.61397
LJ           5.19623       -0.747887       -0.413886
LJ          -4.66717        -4.45624         5.24421
LJ          -2.28869         5.37151         6.06612
LJ           4.79706        -1.60472         -3.5337
LJ           -4.6291        0.907046         1.32488
LJ          -4.26383         3.79149         0.21154
LJ            2.2541        -5.86026         5.14896
LJ          -3.91104       -0.263628       -0.754849
LJ           2.56183         2.10812         2.44292
LJ           2.87814        -2.23635        -1.36677
LJ           3.33248         3.32139         2.49509
LJ          -1.63154        0.867403         2.72083
LJ           1.41538        -1.26361       0.0475711
LJ          -1.94164        -2.86981       -0.305742
LJ          -1.67778        -2.03636         0.35394
LJ          -5.36395         4.49896         4.56655
LJ           6.34772         4.28708         1.04999
LJ          -1.43517         6.22908        -3.92302
LJ          -1.65681        -2.48106         2.70311
LJ           2.12806         6.22338        -5.45182
LJ          -1.22346        -3.56658         2.27477
LJ          0.265282        0.344155         4.57875
LJ            3.7763        -2.85671        -1.99358
LJ           1.93223        -1.63805        -1.51993
LJ         -0.818748        -2.14124         2.04018
LJ            6.0844        -5.01407        -3.19816
LJ          -5.63294         1.19007         1.85779
LJ          0.759273        0.807374         2.29916
LJ         -0.617035       -0.560475        -2.68068
LJ           4.61503        -1.31823        -1.30174
LJ          0.104911        -4.91195         5.75039
LJ           3.25326        -4.91026         4.23047
LJ            6.2883        0.396653       -0.896776
LJ           2.27701         2.50405        -2.31547
LJ           3.08744         3.59288       0.0200526
LJ          -6.02452         4.03471        -1.15196
LJ            3.8668        -2.27153         -0.9738
LJ          -5.65456         0.83095         0.45007
LJ           -5.0219         4.10711        -1.30898
LJ         -0.898694        -2.44675       -0.850374
LJ          -4.57992         3.48133        -2.29953
LJ         -0.914864        0.941876         1.82248
LJ             1.869        -2.33662       -0.122332
LJ           1.81006       -0.524694         5.44353
LJ          -0.39165         1.31856        0.701972
LJ           4.26885        0.581594         1.95125
LJ           4.11799         1.59205         1.51826
LJ           5.68476    -9.60061e-05        -2.76885
LJ           4.29918         1.66703         2.66997
