108
#Comment!
LJ          0.840132       -0.125231        -3.18609
LJ           4.51725        -1.21781         2.31197
LJ           2.74929       -0.474665         1.12804
LJ           4.88795         3.19171         1.12861
LJ          -3.46645        -4.94057         6.33423
LJ           3.60371         5.12921        0.476751
LJ          -2.46076        -1.06225         4.09243
LJ           4.63349        -1.87422        -3.89015
LJ          -1.20393         4.45225         1.65296
LJ          -3.48648         0.38523        -5.98319
LJ          -3.84717       -0.656599        -5.18932
LJ          -3.66192          2.3897       -0.265397
LJ          0.812977         5.19286       -0.864125
LJ          -4.47162       -0.417416        0.469143
LJ          -2.44252         1.05905         -5.4584
LJ          -1.34973        -3.21601         2.17369
LJ          0.167934        -4.57084         6.11227
LJ          -1.04666         3.69437         -4.7405
LJ          -3.21762        -2.74551         6.05581
LJ          -3.71736         2.82709        -5.30153
LJ          -2.08957          1.3411         2.16432
LJ           4.07772         5.65674         1.75685
LJ           -6.2843        0.914832        -4.95615
LJ           1.17471        -4.76225         3.27683
LJ           -2.2641        -3.18464        0.387073
LJ           5.74117        -5.81036        -2.36648
LJ            -5.589          4.8716        -1.82352
LJ          -5.74408        -1.15823        -4.44165
LJ           1.00025        -5.90395        0.812731
LJ           1.77809      -0.0628098         4.41566
LJ           1.70228         3.98321        -3.74867
LJ           3.82228         6.41428        0.021465
LJ            5.7532        -1.79216         4.34603
LJ           3.29364          -2.627         -1.1525
LJ           5.48523         5.24933         1.33131
LJ          -0.87479        -1.13034        -6.40378
LJ          -2.86748         6.11213          4.6727
LJ          -4.39488       -0.380629         1.63796
LJ          -1.71286        -1.08842         5.91114
LJ          -5.94675         4.43491       -0.116625
LJ           3.74685        -2.82789        -2.73363
LJ         -0.717027        -5.23161         4.35175
LJ           1.02328        -3.68494        -1.69238
LJ           -4.2878        0.402361         2.44747
LJ           6.38678         5.31831         -6.1589
LJ           5.18294         1.29275        0.287399
LJ          -5.32208        -3.13167         -1.0699
LJ          -2.79595        0.348726         5.95825
LJ           1.51385        -1.09337         5.36382
LJ           5.64349       -0.768908        -1.65761
LJ          -1.53615        -3.76356       -0.297978
LJ          -2.00815        -4.91322        -3.75472
LJ          -2.38961         3.51459        -2.23961
LJ           3.23722         5.03855       -0.818442
LJ           2.87663         6.03691         -2.5285
LJ          -4.92761         4.83808         5.47929
LJ           2.98047         3.29901        -4.24153
LJ          -4.21505         5.39922        -1.67952
LJ           1.48702        -3.70577       -0.723737
LJ           -5.7795         5.63538        -0.96117
LJ         -0.534871        0.376733         5.16927
LJ           -3.1237         3.90248         3.16439
LJ           -5.1917           5.972         5.67539
LJ           3.73893         -6.1746         1.31287
LJ           6.06918        -5.39637         2.79458
LJ           3.28136        -5.46752        -2.47047
LJ           3.50002        -1.92492        -2.04808
LJ           1.15528          2.4423        -3.08952
LJ           5.25244        -1.81297        -2.53822
LJ           1.01027         3.87764         3.32591
LJ          -2.12531        0.499681         1.20015
LJ           -4.5256        -1.20005         3.50944
LJ          -6.28734        -2.88771        -1.46979
LJ           -0.8137        -3.92469        -5.85523
LJ           -3.9346        -2.07468        -3.84245
LJ           2.35671       -0.378607         -2.2337
LJ           5.72234         4.91724        -4.70484
LJ          -1.54767        -1.38141         4.84514
LJ          -4.88501        -6.39636        -4.38099
LJ            -1.942        -4.35496        -4.60038
LJ          0.113754       -0.855412        -3.58218
LJ           5.00669       -0.937157        -3.52692
LJ           3.22897        0.471032        -1.76705
LJ          -2.65526       -0.796855         5.30547
LJ         -0.381936         4.41081         5.90706
LJ          -3.44401       -0.423306       -0.422675
LJ           -1.9516       0.0379027         2.31636
LJ          -6.06994         2.45566         5.40629
LJ           4.46321       -0.672386        -1.69786
LJ           1.08765         4.80308        -2.03124
LJ          -4.81426          3.7435         4.39673
LJ           5.92264        0.197748        -2.79863
LJ          -2.69547         4.97995        -5.65107
LJ           2.11478          1.7374         1.88271
LJ          -3.55703        -5.78275        -4.71259
LJ             5.089        -2.03233        -1.39689
LJ          -1.47734        -1.52937         3.69622
LJ          -0.23982        -3.98387         2.44751
LJ         -0.249286        -5.38892        -6.38058
LJ            6.0311         4.78315        -1.27352
LJ          -3.15502        0.785805         1.45512
LJ           3.21057        0.376422        0.104801
LJ           4.12636         1.22571        -2.97218
LJ          -1.99077      -0.0524012        0.281722
LJ          -5.79765         3.34574         1.07601
LJ           4.52253         2.79199         2.05218
LJ          -1.18365        -4.32621        -1.33262
LJ          -5.82004         1.31112        -6.04782
