108
#Comment!
LJ           2.33212       -0.111162         4.44388
LJ           3.41011        -5.57275         4.14888
LJ           3.65985        -1.21722        0.674355
LJ             2.825         1.88307         3.17551
LJ          -5.36236         -5.1187        -4.00798
LJ         0.0527008        0.514104         2.06571
LJ           -3.1962         2.20397        -5.63269
LJ           1.75003        -4.04516         5.59934
LJ           6.24744         0.35193        -4.88066
LJ           1.26953         5.62166        -1.08804
LJ          -4.35544         4.43987         5.12578
LJ          -2.33176         1.27155        0.274879
LJ         -0.682862        -6.14271         1.16382
LJ           2.71899         4.39398        -3.40976
LJ          -5.85608         5.23461       -0.636334
LJ          -4.15826          4.2748         2.41528
LJ           3.65355        0.992552         2.01382
LJ         0.0149289          2.3322        -4.49749
LJ          -2.05645       -0.718519         1.93535
LJ          -5.94787         5.74644        -5.25579
LJ          -1.15518         1.83503         5.66196
LJ           4.72069         1.47288        -6.21294
LJ             4.016         4.18898        -5.43937
LJ          -4.40121       -0.685964        -4.68996
LJ          0.240179         1.97027        -4.86238
LJ           2.69873         5.25611        -0.28097
LJ          0.933057        0.162885         2.26254
LJ           5.70687         3.87683         4.29465
LJ         0.0355825       -0.449483        -1.72845
LJ          0.770207        -5.17303         4.46462
LJ           -6.0369         2.74117          6.1656
LJ          -2.08358        -2.24914        -4.35904
LJ          -3.61248        -1.22262         3.66911
LJ           2.03237        -5.31678        -1.90664
LJ           0.10114        0.791133         -4.7704
LJ         -0.627668         -6.0194        -2.60406
LJ          -2.24844        0.935438        -6.12459
LJ         -0.247101       -0.814686         2.89668
LJ           5.33989        -1.23591        -4.83814
LJ          -1.92438        -4.65357         4.90713
LJ          0.625913       -0.967719           3.264
LJ          -1.72729        -4.48863        -1.58404
LJ           5.87555        -2.21728        -1.15242
LJ           2.39781         5.00147         6.38833
LJ           4.73881        -2.34271         1.53866
LJ           1.81027        -1.21076        -2.87197
LJ          -5.78129        -5.95875        -1.74888
LJ           1.93258        -1.16707         5.20857
LJ          0.661448         1.01898        -3.32303
LJ           5.47793         2.02661         4.94499
LJ          -1.29731         4.80908         2.25751
LJ           -2.6256        -1.05521        -1.32271
LJ          -2.09647         4.90251         4.46737
LJ           1.89894          3.9217       0.0512082
LJ          -3.88323         6.02128         3.90812
LJ            2.0773        -5.14723         -1.9628
LJ          -5.59416        -1.41582        -2.40863
LJ          -3.99018         3.85551        -5.93723
LJ          -6.00074        -0.28808        0.646595
LJ          0.344142        -2.55233         1.28952
LJ         -0.369848       -0.755264        -2.07417
LJ          0.392374        -2.40018       -0.529116
LJ           4.81927        -4.62974        -1.91781
LJ           1.43562         4.52411        -2.36669
LJ          -5.25597         1.13792        -5.59083
LJ           2.65838      -0.0206924       -0.114552
LJ          -4.83264        -5.01949        -1.14414
LJ          -1.88093         3.64954        0.895044
LJ           1.26886         1.52379         -2.6984
LJ          -0.94707          0.9778          2.5272
LJ           1.98525         2.49682        -2.79186
LJ           4.64024         1.43499        -2.44641
LJ           6.13234        -1.22847        -5.73291
LJ          -3.21428         2.24061        -2.62977
LJ          -3.58365         3.48565       -0.136964
LJ          -3.00856         5.77184        -5.85288
LJ          -3.19848        -2.95623        -3.00502
LJ         -0.805806        0.291298        -5.09413
LJ          -5.30539        0.440136        -3.96821
LJ          -5.06593        -1.31544        -3.15774
LJ            2.7616         5.36895       -0.902272
LJ           1.80279         3.10633          2.7327
LJ         -0.620944        -5.85718         2.17945
LJ          -3.53939         6.41488         2.23475
LJ          0.323088       -0.376339        -1.83956
LJ          -3.69831         4.22835        0.294142
LJ            6.2366        0.194762          2.5763
LJ          -4.64606         1.42874        -4.84201
LJ          0.232323       -0.682924         4.30149
LJ           6.36365        0.404392        -5.11027
LJ           2.76364         6.03732         4.38319
LJ           5.61282         -6.1523         1.61899
LJ           2.38595      -0.0401824         2.20252
LJ          -3.49279        -4.46779          5.4629
LJ           4.57147       -0.477819         5.70058
LJ          -5.42096         4.81802         3.04946
LJ          -1.59384       -0.948412        -3.29254
LJ          -1.54595        -3.66474          3.0889
LJ          -4.39012        -4.67348         4.90693
LJ           1.65489         5.87999       -0.490509
LJ           2.30938         2.16665        0.510437
LJ           2.50608         4.60266        -1.04929
LJ          -5.29574        -2.07001         4.94673
LJ           3.51066        -1.54594          1.4056
LJ          -1.99673        -5.24591         1.81974
LJ          -1.06831        -1.99774        -3.05879
LJ         -0.557027        -6.39107        -4.46062
LJ          -4.51474        0.299324          6.4401
