108
#Comment!
LJ          0.579776        0.560754        -2.68288
LJ           5.97719       -0.263598         6.32533
LJ            5.4501        0.116204        0.201629
LJ           5.12517         4.16895        -2.47233
LJ           5.97042         3.76569        -3.12797
LJ           5.57178         1.87792         1.23195
LJ          -1.77047       -0.929384         1.73276
LJ           2.91377       -0.970695        -3.83648
LJ          -4.04909         5.24272         3.61185
LJ           -3.2221        -3.70364        -4.91288
LJ          0.234103         2.45111        -5.62292
LJ          -4.16079         5.18945       -0.614777
LJ           2.92168        -3.93908      -0.0649873
LJ          -1.07937        -5.19549        -3.94537
LJ         -0.640945         4.33686        -4.23823
LJ          -2.59364       -0.211829         4.05139
LJ           -4.6351        -1.18021        -5.07519
LJ        -0.0508818         -3.3275          6.1284
LJ          -2.60705        -1.33098        -3.61926
LJ          -5.97077        -2.58141         3.51404
LJ          -1.62613         -3.0236        -4.22354
LJ           3.01612        -6.34404         2.85277
LJ           5.43764         2.04012         3.39359
LJ         -0.933601        -6.25057         2.44295
LJ          -5.65033         1.05729         1.97278
LJ          -5.59454        -4.11003          2.5317
LJ           6.38538        -3.81616         2.19603
LJ          -4.08394          1.3006         5.58883
LJ          0.706894         2.24251         2.19433
LJ          0.138042        -1.80387         1.60202
LJ           1.22791         4.91292        -4.34497
LJ           3.02871        -5.04667         2.95615
LJ           5.12941          3.9024           4.894
LJ           1.18146        -4.97238         -3.7757
LJ           5.38749          2.4037         2.14425
LJ            2.0364       -0.933892      -0.0792861
LJ          -2.48962        -5.42308         6.38365
LJ           -0.7152        -0.85277         1.91931
LJ          -2.09503       -0.451335         2.87536
LJ          -6.23748         3.53811        -1.21809
LJ           4.71904        -1.23823         -1.7399
LJ           4.34074        -3.43746         5.37622
LJ          -2.79601         0.83508        -1.33637
LJ          -2.09894        -1.94164         2.78507
LJ          0.575598       -0.929125         3.09964
LJ          -5.25042         1.07245         2.97545
LJ           6.35973        -2.18327        -2.67359
LJ          -3.61381        -2.36053        -4.91097
LJ           3.52854        -3.72554        -6.36926
LJ           4.37408      -0.0784692         3.66884
LJ          -3.18102           -2.06         2.39424
LJ          -1.41779         3.35811        -4.19814
LJ          -5.95385        -3.82914          0.6449
LJ           4.01226         3.10884        0.432803
LJ           0.28973          4.8642        -2.19321
LJ          -1.96695        -4.43576         6.26706
LJ          -5.18946         2.29003        -2.16428
LJ          -4.98669         2.94255        -3.68018
LJ          -6.26673         6.07041         3.64924
LJ           1.68385        -2.55596       -0.106435
LJ          -4.02543        -2.27851         5.62198
LJ          -2.22594         5.06786         4.41104
LJ           5.72844         2.33123         -3.7681
LJ          -6.14182         2.78372        0.964359
LJ          -5.81228         4.84957       -0.296827
LJ            3.1217        -6.11573        -4.71657
LJ          -5.66351         3.84616         0.63864
LJ           2.48788         2.59533         4.82087
LJ           3.76656        -1.64981        -2.18052
LJ           4.30326         3.11705         2.04705
LJ         -0.722084        0.486762         1.45846
LJ          0.109116       -0.516017        0.915197
LJ          -2.33415        -3.41286        -2.17297
LJ          -2.84401        -3.21778         2.10943
LJ           -6.2054         6.05251          5.0775
LJ            3.8647        0.518489         1.00796
LJ          0.976121        -3.88606          0.4048
LJ          -1.24944        -2.49432         2.90566
LJ           4.61637         5.94603         -4.9954
LJ          -2.94871        -2.71345         3.16438
LJ          0.471254       -0.914311         4.30382
LJ           3.65367        -2.95447        -1.81347
LJ           2.61835        0.138777        -0.97583
LJ          -1.39505        -1.19986         2.77498
LJ           4.58347        -5.88001        -4.52576
LJ          -5.07281         0.44232         1.00081
LJ         -0.453271         1.12229          2.6692
LJ          -2.01642        -3.16219        -3.16327
LJ           4.02613        -2.82788         -2.8488
LJ          0.810785        -6.19038         4.10742
LJ             6.043         5.52041         4.55349
LJ           5.95696       -0.153575        -1.57721
LJ            3.4491         4.24874        -3.13215
LJ           2.51521         2.31059        -0.54168
LJ           6.35817         4.24056        -1.94835
LJ            4.2995        -2.19426        -1.11506
LJ          -5.07775      -0.0863309         2.39279
LJ          -3.16054         5.65008          -4.173
LJ          -1.22643        -3.30878        -1.56827
LJ          -4.93474         3.30311        -1.60247
LJ          0.417649         1.33917         1.80708
LJ           2.45586        -1.00352        -1.08248
LJ           2.59884       0.0751818        -5.99045
LJ         -0.473019         1.38354         1.12964
LJ           5.11216         1.38732         2.63848
LJ           3.26965         2.20277         1.04871
LJ          -5.15891        -1.13663        -2.71321
LJ           5.54249         1.66225          4.4333
