108
#Comment!
LJ           4.41922        -5.62317         4.88476
LJ          0.352114        -6.02056          1.7475
LJ            3.3238        -2.99466         5.81626
LJ           3.07652        0.136987        -2.35758
LJ           4.19569       0.0505693         4.45974
LJ           1.41466         3.60347         5.12244
LJ          -4.73213        -1.17025         6.15587
LJ          -2.36833         5.44854        -5.51094
LJ           2.54177        -1.23901        -6.45909
LJ          -2.55378          5.3142         4.28524
LJ           5.92421        -3.24648         3.60773
LJ          -6.44693        -0.42849        -6.26453
LJ          -4.08995         1.08711        -3.80819
LJ          0.988978         2.76366         3.60361
LJ           3.91416         0.74157         3.33869
LJ          -1.58495         1.61814         3.85184
LJ          -3.98972       -0.710612           2.322
LJ          -6.40381         5.03798         4.95739
LJ           3.30779         4.69598         3.39949
LJ          -5.62334          5.0381         5.33793
LJ           2.08783        -2.78262        -1.08838
LJ          -4.05109        -2.40556        0.787359
LJ           -2.5104         6.33543         4.27466
LJ           6.26045        -1.57938         2.09982
LJ           -2.7554       -0.956373        -4.81194
LJ          0.675752         3.54436         5.43054
LJ          -5.32673         2.10668        -3.03897
LJ            5.1643          6.3782         3.16228
LJ          -2.73912       -0.543681          5.6072
LJ           3.02003         1.65959         3.20882
LJ          -2.12451         4.63037        -5.47706
LJ            5.3276         2.20536        -6.20156
LJ          -6.42488         5.18731        0.417722
LJ          -2.24025        -6.18209         -1.0569
LJ         -0.453748       -0.760642         3.81383
LJ          -5.96352         3.08521         4.84142
LJ           4.74935        0.445264        -2.55771
LJ           5.32545        -6.34772        -5.66076
LJ           4.03088        -2.30774         4.36462
LJ           5.14557         3.26369         6.29337
LJ          -3.39496        0.651412        -4.30475
LJ          -1.34448         6.42926         -4.6637
LJ          -5.05366        -1.86862         5.82571
LJ           1.52712        -1.53485        -2.43809
LJ           4.34802        -3.24639       -0.295035
LJ          -1.19616        -4.56242        -1.14712
LJ         -0.723316        -5.29491        0.317038
LJ           -5.6372        -2.65004        0.846446
LJ           2.54737         3.92948        -3.04283
LJ          -4.40363         2.69588         2.99185
LJ           6.31044       -0.696967         1.37917
LJ           4.50954         3.18408         4.99384
LJ         0.0994659       -0.738901        -4.13082
LJ            5.5307         5.73582       -0.939889
LJ          -2.18174         5.28242         1.19129
LJ            4.0227        -5.69843         4.13122
LJ           2.04331        -1.44958         4.27933
LJ          -4.68558         1.71437         6.38057
LJ          -5.43141         3.95592        -3.99905
LJ          -1.78195         4.78729       -0.794481
LJ          -1.29316        -4.61794        -2.65803
LJ          -3.22443         5.62129         -1.1821
LJ          -5.04216         6.35323       -0.305892
LJ            3.0345         1.56781         5.37767
LJ          -1.90332         5.90172         4.65993
LJ          0.257064        -5.56213         5.16961
LJ          -4.29028         4.44554         4.06495
LJ         -0.338591         4.36631         4.56396
LJ           4.93869         5.34635         3.76112
LJ           4.16464          5.5396        -5.62046
LJ          0.397807       -0.798705        -2.04716
LJ          -4.20822         5.05313        -5.75339
LJ          -3.71458         5.64603         3.12005
LJ          -3.99017         5.21492        0.518503
LJ           -4.3426        -2.15794         3.63592
LJ          -2.20708         6.21614        -5.79993
LJ          -5.03088          5.9907         3.58084
LJ           6.03126         4.32948         1.26012
LJ         -0.207945        -0.67475        -1.83279
LJ           2.95995         -1.4765        -1.42023
LJ           5.98792       -0.398663         2.57198
LJ          -1.99864        -4.54554        -3.10876
LJ          -1.73107         5.74982          -3.707
LJ           -5.7055         4.49753        -5.42217
LJ          -3.05537         5.32812       -0.904044
LJ          -0.44615         4.71163         0.90064
LJ           5.35967         1.83996         2.97145
LJ         -0.844972        -3.87195         3.53413
LJ           2.39775         2.24875        -3.97278
LJ            3.7103         5.73859         6.42088
LJ         -0.999682       -0.774284        -4.58407
LJ          -3.57072         -2.6187        -1.16331
LJ          0.724012        -3.93468        -2.74268
LJ          -1.52149         4.71702        -4.41352
LJ          -2.96949         4.52529         4.24923
LJ          -6.08159        0.265565        0.754574
LJ          -2.34569       -0.537297        -2.61301
LJ          -4.19624        -2.41487          1.9716
LJ          -2.09322        -2.77103       -0.133961
LJ           3.37526         5.67431        -2.90621
LJ         -0.337662         6.37073         1.79844
LJ          -4.31373        -5.38435        -1.58869
LJ           1.28401         5.71589        -3.88758
LJ            1.7582        -6.06769         2.70228
LJ          -0.62201        -0.35342        -5.13731
LJ          -4.93363         5.72453         1.10628
LJ           3.36704        0.325344         4.65857
LJ           5.62848        0.461393        -6.10858
