108
#Comment!
LJ           1.10213      -0.0577955        -3.20733
LJ           4.67013        -1.23684         1.62319
LJ           2.36976       -0.721924         1.27165
LJ           4.98742         3.62781         1.49893
LJ          -3.12738        -4.61133         5.74778
LJ           3.41945         5.72862         0.62399
LJ          -2.33142        -1.23821         4.29065
LJ           4.77558        -1.88068        -3.54192
LJ         -0.518486         5.34541         1.43324
LJ          -3.71426        0.343511        -5.80844
LJ          -4.50227       -0.834966        -5.41865
LJ          -3.78671         1.83968       -0.698757
LJ          0.784419         4.50794        -1.20019
LJ          -4.43301        0.588727        0.894573
LJ          -2.41314        0.816863        -5.55132
LJ          -1.20107        -3.78525         1.72299
LJ          0.679653        -4.76658         6.00014
LJ           -1.1792         2.94619        -4.53803
LJ          -3.60799        -2.60892         5.60839
LJ          -3.55003         1.81336         -4.8951
LJ          -1.97508         1.05637         2.43962
LJ           4.38236         5.81632         1.78452
LJ          -5.96637        0.851013        -4.58097
LJ           1.21788         -5.0112         3.42623
LJ          -2.15176        -3.65183        0.769891
LJ           5.59207         -5.3036        -2.90516
LJ          -5.39571         4.35955        -2.23466
LJ          -6.02268        -1.33903        -4.10435
LJ           1.13259        -5.26216        0.606722
LJ            1.9366      -0.0795853         4.88725
LJ           1.85015         3.92516        -3.56407
LJ           4.06827        -6.36061       -0.203124
LJ            5.9087        -2.34129         4.21549
LJ           3.32515        -2.34422       -0.843863
LJ           5.27543          5.2787         1.09215
LJ         -0.557522        -1.04185          6.0034
LJ          -2.07473         5.94093         4.32206
LJ          -4.29831       -0.391385         1.83805
LJ          -2.37977        -1.23884         6.07472
LJ          -6.07643         4.51262     -0.00909907
LJ            2.7884        -3.24986         -3.2934
LJ          -1.54889        -5.57749         4.65505
LJ          0.806912         -4.0706        -2.80828
LJ          -4.92027        0.496972         2.29199
LJ          -5.74041         6.09215        -5.61192
LJ           4.95979         1.91117         1.04683
LJ          -5.41134        -3.06356       -0.368834
LJ          -2.49439        0.767445          5.9853
LJ          0.890331       -0.804575         5.32709
LJ           5.98814        -1.65424         -2.1464
LJ          -1.18793        -3.81434       -0.400006
LJ           -1.8422         -4.7345        -3.16028
LJ          -1.89459         2.62341        -2.07846
LJ            3.1911          5.3016       -0.982998
LJ           3.27558         6.33015        -2.82473
LJ          -5.77911         4.63352         5.31572
LJ           2.28538         3.43583        -4.46679
LJ          -3.95588         5.59332        -1.46931
LJ           1.27669        -3.27914       -0.184673
LJ           6.35183         4.85336        -1.09808
LJ         0.0325127        0.295228          4.6581
LJ          -3.39177         3.94942         3.76398
LJ          -5.36095         5.70184         5.67266
LJ           3.46492        -6.41038         1.58597
LJ           6.15916        -4.68003         3.20184
LJ           3.36556        -5.09486        -2.89838
LJ           3.95012        -1.89539        -2.21445
LJ          0.976534         2.20369        -2.46686
LJ           4.90513        -1.38404        -2.56036
LJ          0.524304         4.01919         3.61651
LJ          -2.59218        0.204111         1.34272
LJ          -4.87429        -1.05936           4.122
LJ          -6.33037        -2.40881        -1.07435
LJ          -0.14577        -4.30426        -5.49427
LJ          -3.59271        -1.53833        -3.85365
LJ            2.5355        0.464299        -2.98282
LJ           6.38222         6.04602        -3.77866
LJ          -1.01604        -1.29373         5.06343
LJ          -4.37884        -6.28568        -4.57709
LJ          -1.53766        -3.95842         -4.9303
LJ         -0.403526        -1.28139         -3.1611
LJ           5.57258       -0.828091        -3.45106
LJ           3.17534         1.32187        -2.24845
LJ          -3.07263       -0.527264         4.98857
LJ         -0.988316         4.17443         5.53555
LJ          -3.47471       -0.473702       -0.545729
LJ          -2.24961       -0.465118         2.21938
LJ           6.38647         1.74642         4.89405
LJ           4.47396       -0.705674        -1.87206
LJ           0.55723         4.49095        -2.27715
LJ          -4.55309         3.59478         4.52484
LJ           5.67338        0.160692        -2.81881
LJ          -1.65811         4.97884        -6.12087
LJ           2.22596         1.81237         2.38358
LJ          -3.31934         -5.7871        -5.16054
LJ           5.07635         -1.6292        -1.24389
LJ          -1.24123        -1.20177         3.98968
LJ        -0.0612404         -3.4018         1.65469
LJ         -0.240557        -5.94928         6.10331
LJ             5.227         4.47465        -1.04587
LJ          -3.67687        0.791716         1.50083
LJ           3.56775         0.25233        0.327379
LJ           4.25181         1.29644        -2.49224
LJ          -2.50364       -0.309498        0.166564
LJ          -5.68289         3.64543        0.774215
LJ           4.54699         2.34141         2.06198
LJ         -0.479484        -4.81486        -1.40345
LJ           -5.9218         1.20392        -5.61458
