108
#Comment!
LJ           4.60215       -0.566102        -2.39397
LJ          -4.34949         3.46746         2.48299
LJ           4.93825         1.74914         6.27694
LJ            3.3388         3.12383        -3.17818
LJ          -5.39185        -5.06937         -3.3688
LJ            3.1556        0.220293         2.04195
LJ           3.71696        -2.46004        -2.19197
LJ           1.96669        -3.68111        -3.77244
LJ          -1.51352         2.22842        -0.29231
LJ           5.17786        -3.44355         -5.6317
LJ          -3.87691        -3.59472         3.73502
LJ           0.40107       -0.926883         2.58205
LJ          -4.12594         3.00918        -6.40059
LJ           4.60201        -1.36349        -1.75184
LJ          -2.36875        -2.01013        -4.87646
LJ          0.585183         5.76366        -1.09159
LJ           4.68176         2.34387        -2.37144
LJ          -2.48169         5.52104         -5.0852
LJ          -3.02558        -2.83819        -2.46801
LJ        -0.0104903         3.59983        -1.90687
LJ           3.37503         5.04629       0.0891772
LJ          -3.48012         2.46865         5.12799
LJ            2.7006         4.89695        -1.19912
LJ          -3.21583         4.11514        -3.74384
LJ           1.13593        -2.44019        -4.50871
LJ            -2.721         5.77489         4.16828
LJ           -3.7923         3.66606        0.891245
LJ          -1.06842         5.69347        -4.34067
LJ          -6.11173        -3.84539         5.79406
LJ         -0.372979         -4.2099         6.05145
LJ          -5.36231       -0.543159         3.89076
LJ          -3.99495         6.30546        -5.19294
LJ          -2.49846         1.75578         5.49273
LJ           5.37631        0.232319        -1.24876
LJ           5.41598         1.13743         1.77804
LJ            -3.836        -4.37976        -0.21217
LJ           5.47508         3.21575        -0.87169
LJ         -0.537464         3.43794         2.54721
LJ           2.43171         1.94972        -5.89058
LJ           4.11508        -3.50517         4.36632
LJ           6.10562        -3.98434         -3.9242
LJ           2.00995        -6.12654         6.45016
LJ           1.62303        -3.46329        -2.72182
LJ            3.6655        -3.76801        -1.16298
LJ          -4.26598        -4.22658         5.16658
LJ          -6.24984        -3.44701        -1.39913
LJ           4.49682         3.70449          3.2189
LJ           -5.3264         3.77957         4.95041
LJ           0.14354        -1.80131        -5.06026
LJ          -4.32836         4.76492        0.945435
LJ         -0.736141        -5.20013        -5.46279
LJ           1.93521         -5.3711         2.15065
LJ          -3.28833         1.43054         1.80008
LJ          -5.95688         0.38352        -2.53544
LJ          -4.28529        -4.65153        -4.89143
LJ            2.6617        -5.76479         5.91935
LJ           3.69059         1.74336       -0.412602
LJ           2.65636        -3.07569         4.44653
LJ          -2.55211        -5.05124        0.299011
LJ           4.81384        -2.12032        -4.59772
LJ          -6.37118       -0.167767        -5.76092
LJ           1.84328        -4.96316         4.78357
LJ          -3.93301       -0.602865        -2.99181
LJ          -5.71838         2.64196         4.25024
LJ           1.36456        -3.11405        -2.13965
LJ           -2.7857         2.87097          -5.475
LJ          0.421896        -5.62504        0.678867
LJ           2.57414        -4.40069        -1.43469
LJ           4.51284         5.33113       -0.602741
LJ           5.11386         2.81289         5.43155
LJ          -2.71542         3.57642         1.45752
LJ          -3.28648        -2.56524       -0.138892
LJ          -2.71603         4.12475        -6.05434
LJ           3.54324          1.6865        -4.08938
LJ           1.63632         4.55691         3.09916
LJ           2.43712        -2.17733        -4.48135
LJ          0.994622         3.80157         5.02665
LJ          -2.27803         5.37264         1.02971
LJ          -3.69575         1.27922        -5.37315
LJ           2.02288        -5.26277        -1.35443
LJ          -4.48185       -0.436839         4.15636
LJ          0.498743       -0.722925        0.436327
LJ           4.10202        -4.27671        -5.68891
LJ           6.09759        0.833658       -0.750829
LJ            1.9315        -4.72475        0.853012
LJ           1.12163       -0.119756         4.31487
LJ          -5.21088        -3.33482        0.969079
LJ          -1.08431        0.706692         -4.1492
LJ           1.95015         -2.2955       -0.908824
LJ           5.26678         3.03886        -4.23211
LJ          -1.36923          4.7303        -5.83852
LJ           4.99962         5.27199         1.45471
LJ           4.15991         4.87739       -0.385011
LJ           5.37532        -1.34809        0.277671
LJ          -1.82493        -2.40474         4.98521
LJ          -1.78116        -3.24487         4.22078
LJ          -4.01241        -1.88539        -1.76218
LJ          -2.74019        -6.31035         2.47182
LJ          -4.66571         4.93313      -0.0559358
LJ          -1.25165         1.98078        -2.46612
LJ          -6.13714        -3.18753        -4.56054
LJ          -4.63864        -2.85645         6.26607
LJ           2.53087         2.21984          6.0628
LJ          -4.17825         5.28816        -1.29508
LJ           6.22595          3.9351         5.38865
LJ           3.31523        -1.35259        0.246087
LJ          -1.48562        0.471577         2.50868
LJ           3.14857         5.82084       -0.285547
