108
#Comment!
LJ           1.11075         1.89357        -4.49584
LJ          -6.01597        0.515476        -5.05261
LJ            6.3544       -0.198131      -0.0589188
LJ           3.39391         5.46603        -5.45556
LJ           3.73458       -0.053329        -1.37024
LJ           6.45194         2.77547         1.25596
LJ         -0.602125        -1.78445        0.964206
LJ           1.55745        -0.39975        -3.81086
LJ          -3.66144        -6.01705         5.55384
LJ          -1.48089        -4.32356        -5.07955
LJ           1.73331          3.8546        -5.55063
LJ          -5.66393         6.11059         -1.4799
LJ           4.47032        -1.58521       0.0215838
LJ          0.509331         6.28413        -5.22473
LJ        -0.0736946         4.81972        -3.08251
LJ          -4.62613         2.02763         2.01281
LJ           5.02341        -1.35646        -4.56578
LJ        -0.0171353        -1.72321         5.76948
LJ          -2.99219       -0.956827        -2.23952
LJ           4.31177        -1.02887         1.62546
LJ         -0.840763        -3.33342        -4.47961
LJ           2.15695         -4.2432         4.52087
LJ           4.60973         2.87506         2.94784
LJ          -2.98329         3.67032          3.5987
LJ          -5.80647        0.500176         3.52206
LJ          -6.04045        -1.57322         4.50964
LJ          -6.24295        -2.65307         4.80251
LJ          -3.35449         3.08879         4.76219
LJ           2.78446         2.11056         4.19822
LJ           2.16901         6.37502        0.619375
LJ          0.509442         5.17908        -4.04888
LJ           2.66747        -4.35114         5.42551
LJ           5.29991         2.43633         5.88853
LJ         -0.739659         6.13452        -4.63769
LJ           5.83135        -1.36827         4.55304
LJ           3.40587       -0.764817       0.0781396
LJ          -2.81573         6.23796         5.59685
LJ          0.272362       -0.815174         1.33019
LJ          -2.05089        0.686824         1.35065
LJ          -5.49866         1.50584       -0.917175
LJ           3.25242         -1.1688        -1.11843
LJ          -6.38295        -2.68739         6.36891
LJ          -4.94435         3.18533       -0.299452
LJ          -1.42085         -2.8212         1.44934
LJ           0.91346        -2.43988        0.745923
LJ           -4.8126         1.98353         3.56772
LJ            4.4723       -0.490413        -2.49902
LJ           -2.8179        -2.66572        -2.45876
LJ            4.6876        -3.75961        -5.20337
LJ           5.01357        0.244045       -0.434137
LJ          -4.96908        0.401367         2.28056
LJ          0.993087         2.07347        -5.47046
LJ           5.07956       -0.846261         3.62193
LJ           5.46372         1.34545     -0.00768801
LJ          -1.07242         4.14125        -2.57484
LJ          -1.26098         -3.2005         6.07925
LJ          -3.00908        0.524265        -3.40991
LJ          -5.92077         1.78062         -3.8535
LJ          -4.48849        -5.58788         2.55489
LJ           5.30173       -0.795362       -0.470469
LJ          -4.69124        -4.53767         5.22916
LJ          -2.25994         5.30421         6.13922
LJ           4.76783        -1.74798        -3.45495
LJ          -4.56814        0.913196         1.24406
LJ            -4.195         3.75497        0.236207
LJ           2.18822        -5.92585         5.04811
LJ          -3.87629       -0.391994       -0.805552
LJ           2.52321         2.06106         2.38229
LJ           2.92382        -2.31574        -1.33347
LJ           3.26723          3.3741         2.48073
LJ          -1.63547        0.886249         2.71166
LJ           1.40672        -1.28066        0.061242
LJ          -1.92273        -2.87769       -0.258766
LJ          -1.68184        -1.98127        0.446235
LJ             -5.33         4.44228         4.55559
LJ           6.42186         4.40472         1.02892
LJ            -1.575         6.24694        -4.06644
LJ          -1.70992        -2.46925         2.66833
LJ           2.04134         6.23171        -5.46631
LJ          -1.13583        -3.57827         2.23186
LJ           0.27064        0.456014         4.55199
LJ           3.76313        -2.80633        -2.00764
LJ           1.88171        -1.67629         -1.5451
LJ         -0.817874         -2.1848         2.02864
LJ            6.1381        -4.98341        -3.15056
LJ          -5.69356         1.12263          1.8028
LJ          0.780327        0.807277         2.25679
LJ         -0.636841       -0.563695        -2.63363
LJ           4.66163         -1.2698         -1.2167
LJ          0.093985        -4.82254         5.68584
LJ           3.16729        -4.81063         4.17819
LJ           6.28392        0.415025       -0.860546
LJ           2.23552         2.43996        -2.28507
LJ           3.09538         3.63894       0.0359585
LJ          -6.11959         4.01598        -1.11691
LJ           3.88902        -2.19705       -0.915002
LJ          -5.62157        0.833466        0.407604
LJ          -4.97253         4.02633        -1.22814
LJ         -0.860551        -2.44556       -0.966878
LJ          -4.55632         3.46848        -2.31682
LJ         -0.981743         0.90303          1.8288
LJ           1.84904        -2.40496       -0.104516
LJ           1.77607       -0.547061         5.38633
LJ         -0.393475         1.29926        0.745424
LJ           4.26326        0.556743         1.94244
LJ           4.10303         1.59308         1.55664
LJ           5.60913        0.045812        -2.76994
LJ           4.29513         1.65871         2.64889
