108
#Comment!
LJ           -3.2245        -3.30288        -3.10667
LJ           -1.6993        -2.53116        -3.03563
LJ          -3.02271        -2.06445        -2.32873
LJ          -1.33479        -3.87536        -1.74448
LJ         -0.740802        -3.11122        -2.96054
LJ          0.910083        -2.35551        -3.78807
LJ           -1.4362        -2.09412        -1.56731
LJ        -0.0413338        -2.78561        -2.09688
LJ           2.30271        -3.18726        -3.48687
LJ           1.49516        -1.86658         -2.3491
LJ          0.757712        -3.26125         -2.8579
LJ           1.62031        -3.20521        -1.81937
LJ          -3.62877        -1.17566        -2.43616
LJ          -1.66876       0.0995531        -3.03134
LJ          -2.71875        0.841377        -1.73478
LJ          -2.39245         -1.7519        -1.61056
LJ         -0.629463       -0.549495        -2.50108
LJ         0.0555304       -0.864823         -3.5023
LJ          -1.16759        0.171556         -2.1543
LJ           0.35686       -0.697235        -1.96287
LJ           1.00897        -1.05833        -2.99148
LJ           1.35226        0.665216        -2.31919
LJ           1.38489        -0.47353         -1.5669
LJ           3.14233       -0.961688        -1.58947
LJ          -3.55621        0.883764        -3.47506
LJ          -3.13422         2.07252        -3.20971
LJ          -3.24888         1.26426        -2.54534
LJ          -1.99437         1.25793        -2.38203
LJ          -1.74727          1.3333        -3.29669
LJ         -0.440984         1.74137        -3.02343
LJ          -1.70241         2.20031        -2.76972
LJ         -0.500475         1.03205        -2.14445
LJ          0.499122        0.412861        -1.88134
LJ           1.17536         1.59375        -2.96908
LJ          0.306729          1.9792        -2.51958
LJ           1.82536         1.62478        -1.96049
LJ           -2.4969        -3.71534       -0.583292
LJ          -1.96668        -3.00445        -1.05089
LJ          -3.39363        -3.35422      0.00508526
LJ          -1.99155        -2.36161        0.156911
LJ         -0.799234        -2.81526        -1.05919
LJ        -0.0469725        -1.58315        -1.46777
LJ          -1.55817       -0.821504       -0.536008
LJ          0.110332         -2.7516       -0.140754
LJ          0.550325        -2.58943        -1.05456
LJ           3.26432        -1.49322       -0.692583
LJ           1.00662         -2.0315       -0.281372
LJ           1.38586        -2.79377        0.238381
LJ          -3.27047      -0.0906368        -1.63689
LJ          -2.17611        0.085546        -1.40216
LJ          -4.24755        0.300349      -0.0309606
LJ          -2.65405       -0.801428       -0.913899
LJ         -0.197838        -1.84052        -2.71724
LJ         -0.264619        0.576849        -1.10236
LJ         -0.588788       -0.356536        0.328906
LJ           0.25387        -1.52475        0.266462
LJ           1.72688        -1.50705        -1.51434
LJ           2.10625        0.323424        -1.58623
LJ          0.373645       -0.476743        -0.49339
LJ           1.33368       -0.938657       -0.243832
LJ          -3.17149         1.43916       -0.858871
LJ          -1.38825         1.81562        -1.63458
LJ          -4.16409         2.70486       -0.342978
LJ          -2.36022        0.330732       -0.206266
LJ          -1.26367      0.00291639       -0.485678
LJ         -0.203219         1.91641        -1.49848
LJ         -0.854841         1.34045       -0.432069
LJ          0.132872         1.65775        -0.49416
LJ           0.97428         1.23922         -1.2035
LJ             1.396         2.42317        -0.73744
LJ          0.674432         1.66839        0.427786
LJ           1.94087          1.8759      -0.0977236
LJ          -2.75128        -2.92373         1.00016
LJ          -2.20005        -1.92626         1.68323
LJ          -2.98037        -1.35356         2.47129
LJ           -2.4276        -3.68443         1.74253
LJ         -0.183288        -3.81061         1.75788
LJ         -0.365623        -2.67005        0.929393
LJ         -0.315444        -1.02218          2.2524
LJ          0.623223        -2.96711         2.00966
LJ          0.533224        -3.46953        0.720865
LJ           2.15377        -2.29188        0.834987
LJ           1.49953        -2.49528         1.59443
LJ            1.8828        -3.44764         2.03719
LJ          -3.16782        -1.01027          0.8543
LJ          -2.92224       0.0409476        0.674656
LJ          -2.65205        0.526464         2.10805
LJ          -2.38632       -0.719599         1.71723
LJ          -1.81395       -0.203366        0.899865
LJ         -0.408589       -0.641815         1.20961
LJ          -1.30127       -0.333336         2.05473
LJ          0.691641        -1.18697         3.25053
LJ           1.31872        -1.60494        0.772222
LJ           2.17039        0.824462        0.444659
LJ           1.72651        0.729851         2.20829
LJ           1.95531       -0.777489         1.30226
LJ          -2.97573         1.05418        0.634929
LJ          -2.17455         2.46049        0.969332
LJ          -2.50915         1.30724         2.86656
LJ          -1.64803         1.34905         1.35972
LJ         -0.308307        0.702249         1.64831
LJ          0.120317         2.73217         1.03115
LJ         -0.713937         1.90737          2.6874
LJ          -0.50014        0.895015         2.78681
LJ            1.5251         1.44345         1.05837
LJ           2.66154         1.57704         1.25458
LJ          0.652582         1.06483         2.10086
LJ           2.68631        0.905595         2.69665
