108
#Comment!
LJ          0.589927         1.02861        -3.94876
LJ          -6.21323        0.369055        -5.40911
LJ           6.22223        -0.27795       0.0904855
LJ           3.81737         5.16175        -4.80817
LJ           4.42312        0.815474        -1.38579
LJ          -6.43385         2.05742         1.09787
LJ          -0.83892        -1.59676         1.11462
LJ           1.85742       -0.528963        -3.82692
LJ          -3.84457        -6.34949          5.0447
LJ          -2.00158        -4.22376        -4.98711
LJ           1.46786         3.58342        -5.60421
LJ          -5.20896         5.80714        -1.45536
LJ           3.80775        -1.95996      -0.0786685
LJ           0.18368        -6.11712        -5.60211
LJ         -0.516421         5.26122         -3.2212
LJ          -4.35422         1.48669         2.38651
LJ           5.73995         -1.3801        -4.66681
LJ         0.0415313        -1.68383         5.58496
LJ          -2.91295       -0.979182         -2.5082
LJ           4.73277         -1.2358         1.99626
LJ          -1.08367        -3.62061        -4.80951
LJ           2.14243        -4.69717         3.93515
LJ             4.622         2.99092           2.983
LJ          -2.53698         4.31876         3.33623
LJ          -5.73582        0.583218         3.34702
LJ          -5.84253        -2.00542         4.17392
LJ          -6.43842        -3.02196          4.1208
LJ          -3.67815         2.63183         4.74984
LJ           2.17108         2.10115         3.90905
LJ            1.4785        -5.45362        0.529317
LJ          0.691158         5.06923        -4.03898
LJ           2.95785        -4.78534         4.99523
LJ           5.29506         2.93358          5.6459
LJ         -0.244765        -6.33522        -4.58906
LJ           5.93999       -0.471368         3.77584
LJ           3.04603       -0.892268        0.192909
LJ          -2.52849        -6.17187         6.08373
LJ         0.0294133       -0.790647          1.5205
LJ          -2.25664      0.00654191         1.41514
LJ          -5.46224         1.99707       -0.638018
LJ           3.59076        -1.36288         -1.0185
LJ           6.07406        -2.84481          6.1664
LJ          -4.59763         2.55664       -0.712582
LJ          -1.73521        -2.59721         1.79486
LJ          0.808438        -2.21944         1.30462
LJ          -4.70967         1.97199         3.81114
LJ           5.13635       -0.689007        -2.53161
LJ          -3.01363        -2.63706        -3.00143
LJ           4.30754        -3.98264        -5.44788
LJ           4.67594        0.237812        0.138294
LJ          -4.46346      -0.0892061         2.13041
LJ           0.41687         2.30706        -5.16757
LJ           5.55894        -1.66248         3.03269
LJ           4.66234          1.4302        0.421661
LJ         -0.702349         4.45931        -2.56389
LJ          -1.40244        -3.44543         6.14948
LJ          -3.40662        0.897349        -3.04243
LJ          -5.72636          2.0372        -3.83817
LJ          -4.71447        -5.91995         2.91058
LJ           4.67085       -0.741241       -0.167545
LJ          -4.54561        -4.05261         5.31925
LJ          -2.31249         5.39983         5.74207
LJ           4.88912        -0.85673         -3.7428
LJ          -4.85507         1.36781          1.0381
LJ          -4.62595         3.94564       0.0528289
LJ           2.57818        -5.53638         5.66485
LJ          -4.08719         0.38053       -0.501787
LJ           2.81516         2.38336         2.77511
LJ           2.95726        -2.06695         -1.5316
LJ           3.67999         2.97062         2.58671
LJ          -1.57706        0.770673         2.67589
LJ           1.42009        -1.13562     -0.00409334
LJ          -2.08534        -2.97808        -0.67109
LJ          -1.71573        -2.04863        0.322473
LJ          -5.53172         4.78115         4.62097
LJ           5.98238         3.67226         1.15413
LJ         -0.813081         6.14783        -3.13668
LJ          -1.37086         -2.5203         2.86898
LJ           2.57212         6.16634         -5.3755
LJ          -1.64852        -3.56099          2.5277
LJ          0.244172       -0.220582           4.715
LJ            3.7826         -3.1208        -2.00258
LJ           1.90159        -1.24412         -1.3359
LJ          -0.74354        -1.87872         2.21392
LJ           5.81553        -5.16712        -3.43633
LJ          -5.66837         1.34335         2.04574
LJ          0.626824        0.805219         2.49672
LJ         -0.518511       -0.545105        -2.91552
LJ           4.49873         -1.5753        -1.74693
LJ          0.160552        -5.35994         6.07744
LJ             3.658        -5.43434         4.47273
LJ           6.26476        0.371372         -1.1265
LJ           2.48414         2.82406        -2.46753
LJ           3.04867         3.36052      -0.0577465
LJ          -6.03093         4.06071        -1.22179
LJ           3.89211        -2.45937        -1.07841
LJ          -5.78864        0.832715        0.712218
LJ          -4.75289         4.57415        -1.77999
LJ         -0.904088        -2.55574       -0.452068
LJ           -4.7145          3.5219         -2.1915
LJ         -0.615312         1.12543         1.75625
LJ           2.01554        -2.03726       -0.262805
LJ           1.97114       -0.411614         5.72612
LJ         -0.413903          1.3847        0.570565
LJ           4.30648        0.732327         2.04967
LJ           4.20715          1.6251         1.37567
LJ           6.07847       -0.225975         -2.7631
LJ            4.3035         1.72392         2.66478
