108
#Comment!
LJ           5.53953         6.13047        -3.97456
LJ          -3.87267        0.203485        -3.81684
LJ          -3.64576        -1.65024        -0.80776
LJ           1.27293        -6.28111         1.71886
LJ         -0.488621         -1.9777        -3.57992
LJ           3.93189        -5.30706         4.66341
LJ          -1.26529        -2.42982        0.502871
LJ         -0.289563        -0.74224        -3.07631
LJ           6.30801        -1.97279        -5.61178
LJ           1.37308        -2.81323        -3.46133
LJ           3.01364        -6.22238        -5.99574
LJ           4.05729        -4.77511        -1.63617
LJ           -4.8506       -0.500217       -0.603203
LJ          -1.21895         3.20136        -4.03465
LJ          -1.72235         1.66028        -1.64216
LJ          -3.95436        -6.41567      -0.0439988
LJ          0.664583        -1.64182        -3.74157
LJ           0.64962         -1.2544        -5.45709
LJ          -1.66902       -0.603793        -2.03566
LJ           1.86006       -0.150017         -1.0489
LJ          0.591454        -3.19966        -4.16061
LJ           1.63866        -1.38015         -5.3599
LJ           3.40057         2.01515         1.32083
LJ           5.78168       -0.200277         1.71781
LJ           -5.9389       -0.795677        -5.72604
LJ          -4.47117       -0.408259         -4.8555
LJ          -4.42298        0.581674        -5.59524
LJ          -1.45393         2.18028        -5.43494
LJ          -6.00273         1.47148          5.8818
LJ          -5.76982          3.2031          5.1439
LJ          -1.35838         2.93229        -2.84493
LJ           1.71151         -1.2683        -4.27187
LJ           3.55918       -0.200446        -3.80238
LJ          0.117615          2.9123        -4.79225
LJ          0.643933        -6.03088        -3.70195
LJ            3.4644         0.32039        -2.15707
LJ          -1.57876         5.76674         2.25446
LJ         -0.336716         -1.9939       -0.740437
LJ          -2.14396         5.22594         1.10665
LJ           -2.8837       -0.127349      0.00310127
LJ           1.31528        -2.27617       -0.629103
LJ          -2.98595         -1.7132        -4.33287
LJ          -4.75733        -4.88709        0.940281
LJ          -0.47693        -3.02076       -0.119417
LJ          0.453635        -2.49021        -1.38886
LJ          -6.01783        0.728377         1.44982
LJ           2.44114       -0.640135        -2.10244
LJ          -2.05276        -2.27092         1.53877
LJ          -5.55323        -2.06808        -3.47003
LJ          -4.87496        0.400498         -1.2634
LJ           -6.2322         2.11598         1.63088
LJ           5.32999         1.04608         2.82132
LJ           2.12194         5.25468        -5.52463
LJ          -2.77601         3.13996       -0.416964
LJ         -0.433684         2.20223        -1.82903
LJ         -0.125929        -2.29145         3.83328
LJ          -2.66873        -1.75279         4.46132
LJ           4.55531        0.911398        -2.51201
LJ          -2.76448        -3.03695      -0.0116478
LJ          -3.06554       -0.370514        -1.03743
LJ          -4.25794         4.85858         3.21784
LJ          -2.08356         3.78106        -4.22317
LJ           4.15496        -6.16293        -0.47176
LJ          -4.02272         0.41435       -0.289175
LJ           -3.1269         1.63061         0.91791
LJ        -0.0256714         4.46027        0.930256
LJ          -2.14068        -6.37432       -0.912969
LJ            1.1344         1.09988        0.470303
LJ           1.99828       -0.897029        0.408023
LJ          0.625627         5.09309          1.7517
LJ         -0.542605        0.324089         1.54893
LJ           2.36885        -5.89028       -0.407169
LJ          -1.00064        -1.32082        0.730929
LJ          -1.34941       -0.576656         1.44845
LJ          -3.66639         1.72296         3.91472
LJ          -4.10881        -5.59029        0.490021
LJ           4.25867        -5.91972         6.13802
LJ          -2.01295        -3.64773        0.884095
LJ          0.957222        -3.47483         5.16084
LJ          0.936427        -3.03037        0.705531
LJ          0.617594         5.09471         3.31814
LJ           3.70872       -0.756039        -2.39102
LJ           1.94215        -3.24246        -0.41873
LJ          0.949147        -3.43313         1.84239
LJ          -4.59179        -3.81487        -1.05849
LJ           -4.1369         1.32932        0.223451
LJ        -0.0837993         1.12725         0.62769
LJ          -1.78862        -1.21524       -0.460069
LJ          -5.74872       -0.139456       0.0344195
LJ         -0.516402        -1.15205         3.86296
LJ          -1.51981        -2.09909         2.68574
LJ           4.24693       -0.914025        -5.11018
LJ           0.75598       -0.389672       -0.927509
LJ           3.10188         2.11832        -1.51055
LJ            3.9873         2.98357        0.989247
LJ           2.72767       -0.160654         0.74916
LJ           -4.9223        0.162268         0.59835
LJ          -3.26112         2.09787       -0.242551
LJ         -0.298446        -1.84574        -5.12289
LJ          -3.29039         2.50677         -1.2612
LJ          -1.30863        0.576785         2.36741
LJ           1.55511         6.21973        0.559518
LJ          0.418502      -0.0803583         3.79859
LJ       -0.00683611        0.188378         2.52341
LJ           3.66293        0.376777         1.44118
LJ            2.5402        0.593142         1.75135
LJ           2.60471         1.07217        -4.34151
LJ           3.64253        0.609301         2.54789
