108
#Comment!
LJ          -4.11823         -0.2292        -5.03181
LJ           2.18992         1.11955          3.2712
LJ           5.26562        -5.65497        -1.82406
LJ           3.48217        -5.82297        0.551911
LJ          0.460405        -2.65604        -4.73048
LJ          -2.84044        -3.28615       0.0162042
LJ           2.84206        -6.32961        -3.92417
LJ          -2.71714         3.85317        -6.29355
LJ          -6.31228         5.75802         3.93151
LJ         -0.874463         4.68263         4.17709
LJ            5.5637         0.22036        -3.76241
LJ            2.8636         5.84985         6.25181
LJ           -1.9232         3.36231        -2.51316
LJ          -2.93001         -4.3257       -0.211386
LJ          -5.76798        -2.67008         1.95803
LJ           1.04948        -3.59863         4.45007
LJ          -5.45393        -2.07022        -4.01507
LJ           4.68995         4.47173         5.85935
LJ          -1.91373       -0.803732           2.334
LJ          -3.38707        -4.90214         -5.0083
LJ          0.085742        -6.40073       0.0241118
LJ           3.44967           -5.96         5.53628
LJ          -4.01656        -1.57196       -0.111787
LJ           2.02756         2.70349        -2.86784
LJ          -1.04114       -0.937836          4.5396
LJ           1.90315       -0.841025        -4.78781
LJ           3.29284          1.7661        0.956582
LJ         -0.929215         1.52595        0.649557
LJ          0.251839       -0.192193        -2.45927
LJ           4.83203        0.692649         1.83643
LJ           0.64751         1.26446         2.95442
LJ           5.37106       -0.602167         2.28765
LJ          -6.40581          5.8709         2.94784
LJ          -1.56223         -5.4795         1.12624
LJ           5.41543         2.59689         3.59952
LJ          -5.58024        -5.45862        -6.10479
LJ          -5.50452       -0.708711         1.49241
LJ           4.08237          3.0043        -5.27367
LJ          -4.75566         -1.8287         5.81895
LJ            5.5233        -1.50667        -1.01441
LJ          -5.97757         1.95363        -1.50503
LJ           1.54936         5.68948        0.460131
LJ           2.11625         6.15876        -5.64009
LJ           5.60518         5.42202        -5.31306
LJ           6.03953        -5.00809         3.99337
LJ           3.89775        -2.48803         4.26059
LJ           3.25727          3.4145         5.12506
LJ          -1.08022        -1.70315         4.65648
LJ           5.79213       -0.405563        -1.51113
LJ          -5.98388         1.65358         4.03674
LJ          -1.97994         -1.6264        0.494832
LJ           1.05444         5.59504         4.66921
LJ            3.6669         -2.8351         3.27149
LJ           -2.7689         5.00102         6.16564
LJ           4.70061        -1.99879        -1.85732
LJ            1.4398        -2.88038        -1.58438
LJ          0.150327         5.01669         5.17127
LJ           2.51071        -5.25869         3.07752
LJ           4.16442         4.08461        -6.06202
LJ          -3.56473         4.36541        -2.89869
LJ          -6.23846         2.28909        -3.77784
LJ          -5.32838        -0.97467        -4.08572
LJ           5.81569         1.58845       -0.683826
LJ           1.24789        -6.22338         6.16441
LJ          -2.86979         3.81676         1.85903
LJ         -0.668923       -0.549895        -1.47828
LJ          -4.63057         3.05085         3.99612
LJ          -5.53622        -5.88321          5.5562
LJ         -0.547365         2.34535        -2.25303
LJ          -2.87532        -2.47981         1.71236
LJ           3.88922        -3.68542         2.69168
LJ          -3.72708        -2.47893        -5.95091
LJ         -0.826588        -6.44248         1.54036
LJ          -5.25721         2.99709        -6.40128
LJ          -3.16041         5.79526          5.7309
LJ            6.1068         2.64218       0.0348882
LJ          -1.96223        -5.60351       -0.565119
LJ          -2.87746         4.60526        -4.43563
LJ           3.04485         3.45032        -4.68127
LJ           -3.6069         2.28384         4.00595
LJ           5.43819        -4.22529         6.12071
LJ           3.20004         2.30075        -6.07057
LJ           2.85726        -2.94342        -1.66031
LJ          -6.14304         3.65003         2.22364
LJ          -5.36104          6.1516         1.02116
LJ           5.59036        -1.32043         3.66445
LJ           3.60172        -2.26173        -2.88415
LJ          -4.67469         3.17011       0.0163425
LJ           3.75275        -5.84936        -4.46286
LJ           5.84897        -2.21503        -5.67664
LJ           0.87205        -3.36187         4.40778
LJ           1.12209        -1.40131         3.34172
LJ           4.05083         3.03896        0.026753
LJ          -4.98271         6.34677         1.07461
LJ         0.0396515        -5.60394         3.72276
LJ         -0.725707        -3.32061         1.78987
LJ         -0.951923         -2.9442        -5.29619
LJ           6.07507         4.32753       -0.340983
LJ            1.9834        -5.94471         5.88434
LJ          -2.44177         5.87794         5.24798
LJ           -0.2133        -0.77618         4.22966
LJ          -6.14706       -0.171796         2.84848
LJ         0.0865721        -5.23418         5.45391
LJ          -6.45891        -3.56552         4.34848
LJ          -5.17098         2.87912         4.41228
LJ           4.64206        -4.08377         3.66509
LJ          -1.22864        -3.49508        -5.61693
LJ           -3.0853          2.8168         4.69836
