108
#Comment!
LJ          -6.02075         2.60937         -2.2048
LJ           5.44191         1.21297        -2.22835
LJ         -0.598799         1.55379        -2.31096
LJ            3.8928         4.94447        -6.35185
LJ          -1.40781         5.92087        -3.62145
LJ           4.54391        -5.44687        -4.40926
LJ           4.19103        0.755392         -3.4609
LJ           5.32866         5.04843          4.5581
LJ          -3.56205        -4.72986          2.3785
LJ          0.681222        -4.55757       0.0319413
LJ           2.37008         2.03779        -1.14288
LJ           5.53929        -5.00495       -0.944023
LJ          -1.20872         3.23774        0.682031
LJ          -5.47679        -5.97989        -1.32198
LJ          -3.58949         6.43776        -5.74049
LJ           6.27405        -2.87048        -3.33693
LJ          -5.15357         1.49238        0.668097
LJ          -1.96237         4.21892         2.08513
LJ          -2.16982        -1.67952         2.69536
LJ           2.72641        -4.82382        -3.06275
LJ          0.751792         5.04771        -1.58866
LJ           1.78602         5.74914        0.881458
LJ          -2.43436         3.57871      -0.0719434
LJ          0.841988         -3.2086        -3.54455
LJ          -5.80948         1.89688         2.06165
LJ           4.13473        -4.03414         2.21935
LJ          -5.22116        -1.73454        -5.26193
LJ           3.23393        -6.21981        -5.01291
LJ          -2.84328        0.642257        -2.71547
LJ          0.552652         4.02503        -0.21722
LJ           4.37969       -0.533863        -4.31774
LJ           2.36683         3.89622         3.15506
LJ           4.64434        -2.10186        -1.73776
LJ          -4.66992        -3.49342         3.31221
LJ          -4.04506         1.04867        0.386598
LJ           4.02721         4.50279         2.59165
LJ           2.90254         1.30821        -2.06093
LJ          -2.60426       -0.187572         6.07368
LJ          -4.41068         5.23936        -3.50941
LJ           4.92368         4.22161        -2.73402
LJ          -6.06825         6.17809         -3.5958
LJ           -3.4896        -2.46018         3.38194
LJ         0.0655658         6.32286         5.56582
LJ          -1.88599        -5.88488       -0.658203
LJ           5.32435         5.08694        -5.53591
LJ          -6.25928         2.02634         1.30306
LJ          -4.23609        -6.15813        -2.03322
LJ          -5.09299       -0.702307         3.66026
LJ        -0.0933553         5.11147         5.92762
LJ           5.41493        0.664113        -3.08626
LJ            1.4635        -4.71749        -2.41413
LJ           4.87194        -3.08395        -5.70893
LJ          0.612334        -1.52913         2.43147
LJ           6.10491         5.72928         3.99427
LJ           5.69061          2.5386        0.925572
LJ          -5.38262         1.90584      -0.0583369
LJ          -2.01644         -5.0365        -2.97906
LJ           2.62721        -1.73413        -1.87815
LJ          -3.87066        -3.00511         4.27331
LJ           4.02528        -6.28855         -1.4743
LJ          -5.42382        -5.96726        0.295885
LJ           2.23357          3.5201        -2.55348
LJ           4.64934         5.00991        -2.12696
LJ          -3.17494         3.12834         4.37068
LJ           -2.1478       -0.252122        0.909228
LJ         -0.896812         2.85778         3.69515
LJ         -0.379385       -0.745158         2.23645
LJ          -2.58264        -6.19058        -3.91109
LJ          -6.05009        -2.24084        -5.85963
LJ          0.827863        -3.38503         1.07851
LJ          -5.29967        -4.25467        -4.53197
LJ         -0.285925       0.0789036        -1.69791
LJ           -3.8256         1.24448         4.12239
LJ           1.58504         -4.6445        -6.34923
LJ           6.07755         2.40359         2.50697
LJ            3.0749        -5.72583         0.72615
LJ           2.68061         5.02315         -5.7296
LJ           6.20197       -0.845847         1.91545
LJ          -3.52894         3.19483        -4.81505
LJ          0.658281         2.54934        -4.29653
LJ           3.82426         3.07075        0.343949
LJ            3.5454         5.54963         2.21832
LJ           6.29613        -2.07778        -4.53115
LJ          -4.25566        -2.81015      -0.0772428
LJ           6.15183         5.49695          3.2701
LJ          -1.14294        0.408235         4.73569
LJ          0.363651         3.48656        -1.88774
LJ           5.24743         5.97712         6.29675
LJ           6.17189        -3.92857       -0.914753
LJ          -1.14441        0.976825          5.5354
LJ          -2.19326        -4.61283         5.51403
LJ           5.26141         3.49514        -4.70311
LJ           1.51318       -0.571089        -4.31984
LJ          -6.33797        -1.84256        0.242902
LJ           4.52136        -5.23251         4.58701
LJ       -0.00885242         -1.7581          5.6905
LJ          -1.32282        -3.55682        -3.50291
LJ         -0.623324         3.48001        -4.41237
LJ          0.121487         5.08374         5.91515
LJ          -4.42431        -1.01656         3.83171
LJ           3.86289         6.38348        0.785095
LJ          -3.26105        -2.45211        -4.56083
LJ         -0.810217        -6.17456         4.88475
LJ           5.56231         5.36607      -0.0923669
LJ           2.80855        -2.95281         2.34243
LJ           4.19386        -2.92184         -4.9932
LJ         -0.030898      -0.0701884        -4.93113
LJ           -3.5058         2.32875        -2.69503
