108
#Comment!
LJ          0.518693        0.516648        -2.77195
LJ           6.04256       -0.201567         6.42915
LJ           5.52007       0.0604092        0.202833
LJ            5.0536         4.23417        -2.71279
LJ           5.77557         3.52588        -2.95479
LJ           5.68414         1.86185         1.20306
LJ          -1.70404         -1.0197          1.7158
LJ           2.81652       -0.928969        -3.84044
LJ          -4.08684         5.39049         3.69593
LJ          -3.17163        -3.77927        -4.90264
LJ          0.357446         2.55429        -5.63033
LJ          -4.22954         5.25489         -0.7003
LJ           3.00398        -3.81253      -0.0306033
LJ         -0.970857        -5.27439        -4.13709
LJ         -0.644927          4.4519        -4.15976
LJ          -2.75064      -0.0454394         3.91936
LJ          -4.86864        -1.20079        -5.04106
LJ        -0.0313218        -3.12417          6.0438
LJ          -2.64161        -1.27448        -3.51027
LJ          -6.19502        -2.41312         3.39239
LJ          -1.61202        -3.24687        -4.48312
LJ           2.92355        -6.21442         2.93153
LJ           5.42137         2.18786         3.29571
LJ          -1.07858          6.4619         2.52124
LJ          -5.70474         1.05151         2.14205
LJ          -5.54469        -3.90672         2.71445
LJ           6.33092        -3.76885         2.32109
LJ           -4.0693         1.41202          5.4925
LJ          0.840511         2.25262         2.37214
LJ          0.151328        -2.11223         1.36963
LJ           1.19934         4.92853        -4.32331
LJ           3.03338        -4.99756         3.15636
LJ           5.19514         4.11535          4.8993
LJ           1.07006        -5.09161        -3.84569
LJ           5.46682         2.21706         2.18546
LJ           2.10245       -0.892609      -0.0727318
LJ          -2.41385        -5.35061         -6.4355
LJ         -0.626537        -0.70208          1.8585
LJ          -2.17984       -0.567334         2.68326
LJ          -6.17523         3.43199        -1.03748
LJ             4.532        -1.22845        -1.65041
LJ           4.50628        -3.37882         5.43951
LJ          -2.96442        0.987498        -1.34746
LJ          -2.14269        -2.00835         2.75609
LJ          0.509817        -1.02335         3.19146
LJ          -5.14643         1.20465         3.13815
LJ           6.25023        -2.05807        -2.66113
LJ          -3.57349        -2.37054        -4.73829
LJ           3.53475        -3.85147        -6.28208
LJ           4.38435       -0.112897         3.34547
LJ          -3.26765        -1.90622         2.43042
LJ          -1.27397         3.23153        -4.28436
LJ          -6.07039        -3.67144        0.861937
LJ           3.97648         2.96114        0.405212
LJ          0.204553         4.82138        -2.19978
LJ          -1.89623        -4.32007         6.28076
LJ          -5.00046         2.13295        -2.19724
LJ          -5.05484         2.86492        -3.71393
LJ          -6.07638         6.10735         3.72377
LJ           1.94887        -2.40474      -0.0395888
LJ          -4.07296        -2.43976         5.59525
LJ          -2.23024         5.09503         4.53557
LJ           5.64504         2.03565        -3.77967
LJ           -6.0338          2.6377        0.970432
LJ          -5.77635         4.69452       -0.313501
LJ           3.10888        -5.95019        -4.94543
LJ          -5.43913         3.50341        0.544828
LJ           2.53438          2.5883         4.64547
LJ            3.7141        -1.74025        -2.13903
LJ           4.23352         3.11545         2.10255
LJ         -0.775436        0.431397         1.61614
LJ          0.285364       -0.558781        0.775165
LJ          -2.34479        -3.38666        -2.03132
LJ          -2.77642        -3.06458         1.87745
LJ          -6.16104          5.9406          4.9061
LJ           4.13853         0.78492         1.10382
LJ          0.814507        -4.15575       0.0845809
LJ          -1.17909        -2.56014          2.9612
LJ           4.43413         5.92983         -5.0408
LJ          -2.82591        -2.68728         3.05711
LJ          0.459673       -0.925112         4.13793
LJ           3.69335        -2.94752        -1.82342
LJ           2.51678        0.090138       -0.957448
LJ           -1.2727        -1.23142         2.70385
LJ           4.71107        -5.79265        -4.41101
LJ          -5.22221        0.628647         1.05245
LJ          -0.41039         1.05819         2.71443
LJ          -1.79969        -2.83124        -3.16637
LJ           4.09404        -2.72714         -2.8165
LJ          0.746891        -6.12969         4.32773
LJ           5.79923         5.41673         4.64405
LJ           5.99151      -0.0912249        -1.55162
LJ            3.3473         4.11573        -3.07171
LJ           2.61441         2.39451       -0.485994
LJ          -6.44652         4.24581        -1.89185
LJ             4.239        -2.28187        -1.12857
LJ          -5.10728       -0.121669         2.23179
LJ           -3.3077         5.57481         -3.9526
LJ          -1.05882         -3.2819        -1.32498
LJ          -4.92722         3.37427        -1.66153
LJ          0.371593         1.36201         1.72603
LJ           2.45509        -1.10513        -1.05938
LJ           2.54276       0.0315635        -6.10085
LJ          -0.47262          1.3822         1.03903
LJ           4.96812          1.2565          2.6188
LJ           3.32698         2.18831          1.0853
LJ          -5.27146        -1.03726        -2.72594
LJ            5.4009         1.67321         4.29819
