108
#Comment!
LJ          -3.07283        -3.39023          5.2538
LJ          -3.13217         1.39189         3.10826
LJ           3.56066         4.75612         1.30004
LJ           4.47014         3.55204         1.03915
LJ          -1.41785         1.74885        -4.56094
LJ          -1.28756        -2.27961         1.61331
LJ            2.7821        0.972388         5.95593
LJ          -3.33728        -1.46967         4.15893
LJ           3.63374        -2.79352       -0.243509
LJ          -3.89005       -0.457232        -1.37856
LJ          -5.57061        -1.51665        0.158483
LJ          0.916775        -2.97866        -4.68566
LJ         -0.431651        -4.09802        -1.16716
LJ           1.49683         -4.6857         -3.7354
LJ           -2.0614         5.93137         5.57125
LJ           6.27771         1.63127         2.91252
LJ           -4.5179        -2.33095        -3.30251
LJ          -1.07859         1.67323         4.01781
LJ          -5.25147        -1.26095         2.91513
LJ          -1.79857        -3.08463       -0.337561
LJ          -1.51287        -5.46546        -3.73217
LJ          -2.25075        -1.32398        -2.86715
LJ          -3.53113        -2.99677         -3.4706
LJ           1.29158         2.78144        -4.11915
LJ           2.63693        -5.83591          3.0876
LJ           5.93246         5.02587        -5.44939
LJ         -0.806065         -3.6861        0.439826
LJ          -5.82335         2.87956         4.15276
LJ          -2.28677         2.73491        -3.77976
LJ          -1.28848          4.8294         3.23398
LJ           5.70463        -4.82374        -1.00362
LJ          -1.75464         -2.5355         2.33743
LJ           4.16017        -3.09134         1.69072
LJ          -4.39881       -0.375312         -1.3974
LJ          -5.18401          5.9183         1.05964
LJ          -3.74571        -1.90232        0.445301
LJ          -1.76056        -5.69864         4.61706
LJ          -2.03522        -5.14388        -4.40496
LJ          -5.27741          2.9836         3.17966
LJ          -3.15847        -2.00819        -1.06559
LJ          -5.84216         5.55218         1.05768
LJ          0.586714        0.218142       -0.314532
LJ          -2.65575        -1.03746         2.38482
LJ           6.03616         4.32566        -4.78589
LJ          -5.18471        -3.40468         2.23681
LJ          -2.24525        -4.33722       0.0643962
LJ           5.21517         6.29782         4.56225
LJ           4.67745        -3.79562        -4.08164
LJ           1.15386         4.59394       -0.895749
LJ           1.71399        -1.89522         6.12478
LJ          -2.47517       -0.898708        -2.86027
LJ           5.93831        -3.48332        -1.43817
LJ          -2.43026        -3.47331         3.04674
LJ          -1.46448        -1.00598        -2.60376
LJ          -2.37628        -2.59444        -0.81075
LJ           4.85379         3.54467        -4.44559
LJ          -5.78411         5.64472        0.111076
LJ           1.38448         1.87784         3.11193
LJ          -4.37177         1.79579         6.18293
LJ           4.74785        -0.48431       -0.206898
LJ          -2.89181        -2.63262         3.17349
LJ          0.605188        -2.07276        -4.32176
LJ           4.99895         2.13181         1.24677
LJ           5.74835         3.24483         1.36713
LJ           2.99757        -5.84746        -3.33905
LJ          -3.06505         2.41871        -5.96488
LJ          -5.01016        -5.57928          2.4581
LJ          -2.95048        -2.77829         1.90156
LJ          -6.27034       -0.593588         2.51279
LJ          -3.21373        -5.86133         2.04044
LJ          -3.55063         -2.4595         2.14474
LJ           -4.7841         1.24209         5.64026
LJ          -2.28544         6.34864         6.22623
LJ           5.48687          3.0384         2.42659
LJ          0.301953         2.85105         5.63547
LJ          -2.81787        -3.81621         5.21038
LJ           2.48256         4.95883         2.47046
LJ          -2.63789         4.98274         4.96284
LJ          -3.30628         3.89422        -1.95887
LJ          -2.07667       -0.774748        0.518877
LJ          -4.69582          3.3286         6.43271
LJ          -5.77588        -4.42802        -2.63397
LJ          -4.55797        -1.14063         2.15811
LJ         -0.114665        -3.05753         1.85188
LJ          0.186692         2.75736        -3.02898
LJ          -5.96726         4.44008         4.61623
LJ          -1.29958        -5.90357       -0.706457
LJ           1.52966        -3.22118        -1.14717
LJ          -1.21151         1.12715         3.39069
LJ          -4.62574         3.87922        -1.40947
LJ            3.8899       -0.713679        -5.28151
LJ          -2.33225       -0.741845         6.17647
LJ            5.0385        -2.34645        -5.49544
LJ            2.3306        0.602178         5.17646
LJ          0.983577        -2.11758        -4.88863
LJ            -1.194        -2.17072        -2.41546
LJ          -3.71161        -2.36452        -4.53042
LJ           5.88077         3.97328         3.40021
LJ           0.70219         4.56358        -3.25929
LJ         -0.847235        -4.04179         2.73419
LJ           2.19253         1.74861        0.529789
LJ          -2.98493         5.60481         5.69091
LJ          -3.08882        -2.63931        0.799931
LJ          -4.32036        -1.07669         2.74274
LJ           6.23001        0.746278         3.34892
LJ           4.24119        0.707184        -1.44851
LJ          -3.53283        -4.11648         1.80507
LJ         -0.694889        -0.95082        -3.86935
