108
#Comment!
LJ           1.90323         2.65273        -5.58896
LJ          0.275945         3.62992        -1.87602
LJ          -4.89778         -3.3463          3.0609
LJ          -6.28031         5.36976         3.56722
LJ          0.577464        -4.74179         5.97455
LJ          -5.04976         2.62291        -1.87722
LJ           3.02563         5.40688        -3.19977
LJ          -6.41359      -0.0577166        0.317022
LJ          0.324756         3.36512         5.70933
LJ          -3.50711        -3.85002        -5.60607
LJ           5.61001         -2.3029         -2.8479
LJ          -3.13373        -5.68163        0.951075
LJ           5.98404         3.63249         1.82955
LJ           -2.7542         2.75543         4.16331
LJ          -6.10608        -5.11723        -1.24149
LJ           3.73184         1.05055        -5.33745
LJ            6.3213         4.20213           3.303
LJ           2.98034        -3.19981         6.38902
LJ          0.685354       -0.793651        -2.69711
LJ           5.94861         5.51643         5.72266
LJ            3.2681         2.63903        -3.79265
LJ           1.44769        -6.35748         2.90938
LJ           4.79916        -1.27877        -1.91883
LJ            5.2928        -1.49235       -0.122182
LJ           2.18194         1.74177         4.40306
LJ           4.13017        -3.93153        -3.31766
LJ           6.03892        -2.65997          3.6358
LJ          -3.92409         6.36083         2.93803
LJ           2.04968        -3.93466         3.97723
LJ           4.89018         -5.7204        0.571294
LJ          -1.31459         3.56342        -4.00366
LJ           5.35909        -1.66011         5.80553
LJ          -3.14005         5.28667         1.99336
LJ           2.74197         3.69507         5.83696
LJ           2.15172        0.425853        -2.05316
LJ           1.44359        -3.02263         2.53125
LJ         -0.661253         1.74887        -1.21231
LJ           5.99793        -3.31428         1.09629
LJ          -3.61681        -4.92263        0.717097
LJ           5.06055         5.09924         3.61782
LJ           1.14934        -6.26581        -2.86642
LJ          -2.77925         1.37209         5.67401
LJ           1.48795         4.53835        -1.16227
LJ          -5.40536         4.16387        -4.83531
LJ            2.7644        -6.25545         4.89117
LJ          -4.85647        -1.62894         1.34225
LJ           3.19179         4.67039          5.7821
LJ           5.65146        -5.88282         4.62513
LJ              5.04          1.6042        -4.74509
LJ          -2.44848        0.870655         4.98541
LJ           4.58328        -2.45211         2.94204
LJ           3.69245         3.15552        -5.34712
LJ         -0.482179       -0.951522       -0.645916
LJ          -3.92913        0.520431        -4.67687
LJ          -1.32289         4.15484        -2.73536
LJ          -3.92401         1.38594        -4.21205
LJ         -0.109931        -3.14972         2.00199
LJ           1.07803        -3.97637          3.8117
LJ           -3.8556         2.51873        -4.41683
LJ          -4.91522         6.16279         6.03323
LJ           5.54038         3.52416        -5.47931
LJ            6.3025         6.26714         3.58318
LJ         -0.563158         3.97904        -5.87658
LJ          -3.13238         4.08455        -3.98282
LJ          0.129864        -2.83487         3.48278
LJ          -3.25492       -0.742199        -4.28166
LJ          -0.15872         -3.7204       -0.965103
LJ          -4.82878         4.87983         2.96817
LJ          0.916311         2.26043         2.58682
LJ          0.183803        -2.79998         -4.1828
LJ          -4.51468        0.588128       -0.314106
LJ          0.773383        -4.10171         5.95118
LJ           3.29408        -6.12884        -1.65423
LJ          -1.83213         4.37438        -1.19005
LJ           -6.2472        0.165063        -1.67831
LJ           5.82479         2.33975        -3.45428
LJ           5.38504        -3.77817         6.25399
LJ          -3.27793         3.36736         4.81425
LJ           5.91318          2.4596          2.6346
LJ           5.75571         2.19795        -5.40332
LJ           4.97177         2.88855        -1.60177
LJ          -1.26028        -4.87887         2.62269
LJ          -1.02288        -1.53806         3.00431
LJ         0.0190957         6.06181         -3.8516
LJ           2.41294        -3.99513        -4.10026
LJ          -3.64615         3.26973         5.98812
LJ           0.30697         3.30308       -0.765454
LJ          0.833897         1.12407        -3.08172
LJ           3.34302        -0.33116         5.78572
LJ           5.80137        -4.24035         2.64989
LJ          -4.90574        0.111153        -5.50517
LJ          -2.87913        -1.95754        -1.54999
LJ         0.0231544        -4.16385         5.08395
LJ           4.31905         5.84812         3.03351
LJ          0.335255        -5.51821         3.92905
LJ           1.84694        0.169057        -1.23236
LJ          -2.82903       -0.971788         -5.7622
LJ           4.90149         2.70041        -4.44028
LJ            5.8982         1.47889        -1.60814
LJ           3.32173         5.63513         5.48798
LJ          -2.58313        -3.39599         4.18507
LJ           1.38889         1.73833        -5.64744
LJ         -0.691257         4.66715        -2.02017
LJ           3.61247         5.37102          4.4763
LJ           6.45202          2.8772         3.99324
LJ           1.35303        0.645425         4.75116
LJ           3.38173        -4.51016         5.09314
LJ           4.18159        0.386222        -5.82664
