108
#Comment!
LJ          -6.32368        -5.90743        -3.75678
LJ          -3.30929      -0.0340643        -3.74476
LJ          -3.18296        -1.88829         -1.2374
LJ          0.670365        -5.76964        0.684696
LJ        -0.0340497        -2.53093        -3.26286
LJ           3.11376          -4.329         5.82218
LJ          -1.72625        -2.58968        0.231883
LJ         -0.375241        -1.30043        -2.85916
LJ           5.30493        -2.29422        -5.06621
LJ          0.842618        -2.35179        -2.67739
LJ           2.78545        -5.58688        -5.51835
LJ           3.20598         -4.3389        -1.55979
LJ          -4.44455       -0.342905       -0.651195
LJ          -1.64386          1.9318        -3.83356
LJ          -2.05146         1.58239        -1.89129
LJ          -3.60111        -5.38846       -0.660553
LJ          0.578691        -1.45716        -3.33277
LJ          0.254823        -1.25433        -4.70172
LJ          -1.24431       -0.583695        -1.83187
LJ           1.35944       -0.599546        -1.65202
LJ          0.831101        -2.66391        -3.88943
LJ           1.93763       -0.760309        -4.45998
LJ           2.91025         1.58967        0.327511
LJ           4.99693       -0.483735        0.675735
LJ          -4.91129       0.0115532         -5.1579
LJ          -4.67515        0.393966        -4.14095
LJ          -3.79995         0.69234        -4.79977
LJ         -0.972831         1.58317        -4.61333
LJ          -5.06251         1.28639         6.31698
LJ          -4.57366         2.66446        -6.43711
LJ          -1.84254         2.15868        -2.70996
LJ            1.0981       -0.519472        -3.46543
LJ           2.48574       -0.342348         -3.1928
LJ          0.159396         2.32612        -4.33527
LJ          0.183954         5.12221        -2.88035
LJ           2.90636        0.556953        -2.14428
LJ          -1.16549         6.11701         1.46455
LJ         -0.575826        -2.23569         -1.4283
LJ           -2.4358         6.24063        0.905263
LJ          -2.29515       -0.047882        0.133202
LJ          0.973289        -2.47256       -0.523948
LJ          -2.27929        -1.34196         -3.8685
LJ          -4.38618        -3.17378        0.945111
LJ        0.00748962        -2.78465       0.0348295
LJ          0.628764        -2.33984        -1.64571
LJ           6.07653        0.249031        0.958159
LJ            2.5053       -0.743384        -1.70127
LJ          -1.32054        -2.47607         1.23489
LJ          -4.89755        -1.63187        -3.09461
LJ          -3.71774        0.592739        -1.24851
LJ          -5.88918         1.88806         1.25001
LJ           6.43491        0.339332         1.99157
LJ           1.46114        -6.05748        -4.78425
LJ           -1.9824         2.80941       -0.656033
LJ         -0.538397         1.45515        -1.33225
LJ          0.146037        -1.45277         2.69844
LJ          -4.01513        -2.07947         2.31565
LJ           4.13428        0.819146        -2.17736
LJ          -2.30177        -2.07125       -0.703075
LJ           -1.9232        -0.43157       -0.979836
LJ          -4.02386         4.03961         2.22042
LJ           -2.0591         3.56072        -3.37015
LJ           5.33462         5.72723       -0.438565
LJ           -3.5931       0.0718652       0.0209914
LJ          -2.70434         1.09677        0.901702
LJ        -0.0231269         3.98117        0.314484
LJ          -1.62306         5.17214       -0.738235
LJ          0.830389         1.54834        0.329382
LJ           1.20507        -0.45306        0.292368
LJ         -0.263519         5.44055         1.38535
LJ         0.0966765        0.536442         1.77026
LJ           2.00155         5.67517       -0.510065
LJ          -1.21338        -1.53339        0.783077
LJ          -1.80578        -0.88759         1.79092
LJ          -3.26388         1.03285         3.73034
LJ          -3.72537        -4.80214        0.782551
LJ           2.93652        -5.54629          5.2492
LJ          -1.86515        -3.54798        0.791034
LJ          0.695142        -2.51878         4.59536
LJ          0.743187        -2.84448        0.708722
LJ          0.704366         6.22073         2.77218
LJ            3.5667        -1.19574        -1.87351
LJ            1.7589        -3.26553        0.254153
LJ           1.37249        -3.50228         1.31476
LJ          -4.04663        -3.54998       -0.487757
LJ           -4.1859        0.938636       -0.372941
LJ         -0.714591         1.11535        0.459317
LJ          -2.14207        -1.06673        0.211302
LJ          -4.90722       -0.315284        0.343706
LJ         -0.651799       -0.955129         3.44142
LJ          -2.26198        -1.83341         2.94768
LJ           3.37816        -1.01244        -6.27377
LJ          0.845977        -1.22347       -0.430335
LJ           2.99285          2.1085        -1.26381
LJ           3.34503         2.71504         1.59489
LJ           2.35125       -0.133466        0.277611
LJ          -4.19447        0.775955        0.812837
LJ          -3.06862          2.0386       0.0976376
LJ         -0.889508        -1.15626         6.33736
LJ          -2.48776         1.90611         -0.9574
LJ          -1.07411        0.460122         1.72333
LJ           1.14477         4.92746         0.61387
LJ          0.145529        0.714447         3.67081
LJ         0.0589278       -0.279841         2.68655
LJ           3.46991        0.804047          1.2847
LJ           2.52892        0.325593         1.71269
LJ           1.96874         0.88296        -6.04021
LJ           3.57462        0.664127         2.98126
