108
#Comment!
LJ          -1.97248         1.49141         4.11936
LJ           5.13962         1.80197        -2.50845
LJ          -4.40346         1.92798         6.46087
LJ           4.26268          1.1923         4.94163
LJ          -1.12855        -4.67687         -1.3113
LJ          0.984311         1.29386         2.06071
LJ           2.88006         2.33979         4.45752
LJ         -0.856359        -1.75967       -0.155068
LJ          -2.11005        -4.74871         1.62795
LJ            -3.123         1.92391         5.55058
LJ         -0.328468        -5.04641         6.17625
LJ          -1.29141        -2.64999         2.15208
LJ            1.7783       -0.738956        -5.23641
LJ           3.73026        -3.11136         6.37734
LJ          -2.09458        -3.29169         5.91225
LJ          -2.04088         3.47682         4.88956
LJ           1.19091        -4.41234        -3.81924
LJ          -3.11019        -2.15025        -5.55294
LJ           1.33032         2.78198        0.841206
LJ          0.450171        -6.41997        -1.27139
LJ           6.45106         3.20281         6.18107
LJ          -1.23716         3.67301         3.53131
LJ          -5.65594         -3.3716        -2.53678
LJ          -6.04095        -3.53787        -5.35636
LJ           6.38199        -1.92735        -1.45086
LJ            3.5927        -4.35634      -0.0896865
LJ          -3.83446         3.23165         2.76769
LJ          -1.23962         3.28515         2.00806
LJ           2.55266          1.5614         2.16045
LJ          -4.08542         -1.3999         2.84136
LJ           5.62953        -5.42138        0.939726
LJ           4.70273         3.18767          3.0149
LJ          -6.19657        -4.47074         1.09707
LJ            -2.121         1.28225         3.41971
LJ          -2.30646       -0.646959        -4.55752
LJ          -4.97477        -5.31112         3.72381
LJ          -2.01903         2.57044        -5.08786
LJ          -5.77641        -2.62008           3.068
LJ            2.9187          6.2715        -1.77104
LJ           1.12838         1.54107        -1.57017
LJ           5.36353        0.561069        -4.69128
LJ           4.07763          5.5026        0.188846
LJ          -2.01594        -2.37862       -0.473499
LJ          -4.57932         -6.1214        -4.64233
LJ          -2.15201        -2.47755       -0.813025
LJ          -6.15619        -4.55995         5.86337
LJ          -2.68249        -6.27912        -1.22001
LJ           5.68762        0.609359        -2.08915
LJ          -3.39067          1.6719        -3.86205
LJ           -5.4572         2.29188        0.802797
LJ         -0.940224        -3.11523         3.20075
LJ          -4.81407        -3.41933         4.54921
LJ          -2.43553        -1.64654       -0.464359
LJ           4.29932        -2.52243         1.15714
LJ           2.42879         1.41451         5.40905
LJ           3.49034      -0.0856876        -2.96392
LJ           5.65144       -0.299287          3.6827
LJ           1.25246         5.78891         1.43353
LJ           5.97586         4.04508         -5.8049
LJ          -1.01126         -2.1777        -1.65668
LJ          -4.44011         2.17005         5.02458
LJ           4.41912        -4.46725         1.70362
LJ           2.24506           2.814         6.28532
LJ           1.20458         2.88015        -1.91204
LJ         -0.186111        -1.42759       -0.849341
LJ           5.19913        -2.68887        -2.05732
LJ           4.56458        -3.45863        -4.73095
LJ          -2.28097        -6.41571          5.4173
LJ          -3.93477         2.14798        -4.15708
LJ          -4.91548         5.64815         2.69504
LJ          -4.72681         4.01908         5.71261
LJ         0.0655793         1.03349       -0.917353
LJ           2.64983          1.2357        -2.95168
LJ           4.72588        0.972939         2.40921
LJ            2.9773        -5.81342        -1.84988
LJ          -4.90342         6.25947        0.998138
LJ           -3.6724        -3.60013        -2.76913
LJ          -4.15974         3.95285        -6.16337
LJ          -4.56391        -3.51362        -4.47529
LJ           3.30271         1.15595        -3.65008
LJ           1.29727         -4.4626         1.23108
LJ         -0.686066        -3.31105         1.81604
LJ          -1.96917         3.76662         5.51586
LJ       -0.00751545          1.7215        -2.09258
LJ           4.67886        -4.70285         2.17924
LJ           4.56306       -0.378099        -5.48443
LJ          0.289252         4.36093        -5.27626
LJ           5.35158        -5.63685         5.62967
LJ            1.6731       -0.670186         3.43793
LJ          -1.85504        -1.69347         3.75432
LJ           5.27512       -0.616557         3.23789
LJ          -1.82586         5.77856       -0.574347
LJ           5.00139        -3.40833        -1.56981
LJ          -2.06574        -4.96234         3.01081
LJ           3.00999        -4.74142         6.30701
LJ           1.31687        0.700882         -3.3202
LJ           0.43067        -3.77416         0.10395
LJ        -0.0899571        -4.74983        -3.48498
LJ          -1.58684         4.75059         4.46146
LJ           5.05939        -5.64266         4.68962
LJ           5.72127         5.25893         3.19776
LJ           4.94645         5.77192          4.7593
LJ            5.4972         1.71662         -1.8977
LJ           -2.2827        -2.00715        -2.57499
LJ           -3.9792         1.63792         1.70403
LJ           5.61115        -6.13506         4.40234
LJ         -0.931305         -5.3148        -1.06975
LJ          -3.00552         3.07785        -5.06942
