108
#Comment!
LJ           5.75234         6.30815        -3.93101
LJ          -3.78273        0.150947        -3.81072
LJ          -3.56003        -1.71341       -0.900451
LJ           1.19164        -6.26112         1.40779
LJ         -0.417594        -2.09703        -3.52195
LJ           3.76854        -5.09457         4.87656
LJ          -1.39855        -2.34482         0.41329
LJ         -0.325979        -0.80297        -3.01781
LJ           6.10517        -2.04177        -5.50273
LJ           1.28382        -2.74022        -3.31656
LJ           3.07669        -6.06932        -6.04553
LJ           3.88757        -4.68671        -1.62219
LJ          -4.68293       -0.410953       -0.622155
LJ          -1.32088         2.96016        -3.99112
LJ          -1.79571           1.614         -1.6937
LJ          -3.88318        -6.22267       -0.186895
LJ          0.617611        -1.63892        -3.63746
LJ          0.576458        -1.24935        -5.32283
LJ          -1.57849       -0.596546        -2.00613
LJ           1.75024       -0.230481        -1.17906
LJ          0.668546        -3.12836        -4.12069
LJ           1.71322        -1.25864         -5.2161
LJ           3.31825         1.98903         1.10717
LJ           5.60433       -0.282175         1.50381
LJ          -5.75078       -0.642422        -5.62975
LJ          -4.48106       -0.257525         -4.6574
LJ          -4.28854        0.635037        -5.46657
LJ           -1.3623         2.04117        -5.29767
LJ          -5.81842         1.42565         5.96875
LJ          -5.52834         3.10628         5.41117
LJ           -1.4532         2.78423        -2.81392
LJ           1.61617        -1.08123        -4.09137
LJ           3.41103       -0.311013        -3.53947
LJ          0.146031         2.80003        -4.70287
LJ          0.551419        -6.38548        -3.53702
LJ           3.45936        0.279976        -2.17363
LJ          -1.51839         5.80496         2.04548
LJ         -0.416741        -2.11962       -0.810743
LJ          -2.15241         5.44056         1.11857
LJ          -2.84216      -0.0940862       0.0181829
LJ           1.21515        -2.33833       -0.608776
LJ           -2.8427        -1.64395        -4.24145
LJ          -4.65163        -4.58421        0.925881
LJ         -0.397047        -2.92026       -0.169132
LJ          0.567607        -2.46493        -1.41378
LJ          -6.17309        0.636547         1.34628
LJ           2.46971       -0.608376        -2.02462
LJ          -1.91198        -2.28693         1.66937
LJ           -5.4233        -1.98293        -3.39376
LJ          -4.66287        0.421668        -1.30164
LJ          -6.16091         2.09379         1.55663
LJ            5.5458        0.911427         2.68131
LJ            1.9847         5.57265        -5.37378
LJ           -2.5837         3.12312       -0.451823
LJ         -0.423411         2.05622        -1.72452
LJ        -0.0636392        -2.13854         3.60544
LJ          -2.84103        -1.81999          4.0061
LJ           4.37018        0.838696        -2.41728
LJ          -2.67975        -2.86539       -0.149957
LJ          -2.83601       -0.362428        -1.03498
LJ          -4.21144         4.69488         3.01867
LJ          -2.07877         3.75291        -4.05669
LJ           4.39293        -6.37153       -0.464359
LJ          -3.93971        0.280996       -0.216028
LJ          -3.01182         1.52034        0.975041
LJ        -0.0337011         4.34107        0.786564
LJ          -2.03493         6.27616        -0.88247
LJ          0.943117         1.19148        0.450926
LJ           1.83072       -0.826691        0.401631
LJ          0.408329          5.1899         1.69615
LJ         -0.385248        0.362756         1.59775
LJ           2.30377        -6.15586       -0.440781
LJ          -1.04003        -1.33375        0.773734
LJ          -1.44023       -0.678235         1.48626
LJ          -3.58588         1.58508         3.87834
LJ          -4.06944        -5.38393        0.591708
LJ           3.89107        -5.88313         6.12047
LJ           -1.9878        -3.67906        0.876585
LJ          0.906114        -3.28548         5.04966
LJ            0.9358        -2.99014        0.687531
LJ          0.639398         5.32144          3.2262
LJ           3.62053       -0.675997         -2.4414
LJ           1.92646        -3.26402       -0.289082
LJ           1.02544        -3.43885         1.73268
LJ          -4.48562         -3.7617       -0.952879
LJ          -4.10156         1.34466       0.0782766
LJ         -0.075436         1.15496        0.551294
LJ          -1.82734        -1.26879       -0.306246
LJ          -5.61692       -0.191673        0.114572
LJ         -0.560678        -1.12411         3.79588
LJ          -1.79304        -2.08513         2.61838
LJ           4.07521       -0.934178        -5.34597
LJ          0.763797       -0.540879       -0.833558
LJ           3.07803         2.12378        -1.46056
LJ           3.84146         2.90284         1.11553
LJ           2.64548       -0.106428        0.737545
LJ          -4.78125        0.259127        0.667351
LJ          -3.31128         2.04649       -0.179363
LJ         -0.436916        -1.71251        -5.43166
LJ           -3.1554         2.38458        -1.22268
LJ          -1.30254        0.588972         2.25961
LJ           1.44094         6.05001        0.677141
LJ          0.370997       0.0831428         3.75462
LJ         0.0392947        0.104428         2.59431
LJ           3.65978        0.452658         1.40082
LJ           2.52764        0.483039         1.64969
LJ           2.47718         1.03897        -4.68365
LJ           3.63823        0.624251         2.68194
