108
#Comment!
LJ          0.641216        0.604701        -2.59355
LJ           5.91187        -0.32551         6.22132
LJ           5.37825        0.173847        0.200092
LJ           5.19279         4.11858        -2.21964
LJ           6.18762         3.98963        -3.29146
LJ           5.47206         1.87398         1.22383
LJ          -1.86978       -0.842634         1.78021
LJ           3.01214        -1.01336        -3.83051
LJ          -4.01052         5.09508         3.52862
LJ           -3.2735        -3.61083        -4.92201
LJ          0.110322          2.3485         -5.6149
LJ          -4.09778          5.1218       -0.528513
LJ           2.83635        -4.06217       -0.100199
LJ          -1.18796        -5.11504        -3.75362
LJ         -0.648712         4.20484        -4.31566
LJ          -2.42738       -0.383966         4.16173
LJ           -4.3955        -1.16683        -5.10806
LJ        -0.0713293        -3.53124         6.21307
LJ          -2.57267        -1.39241        -3.72974
LJ          -5.74631        -2.75372         3.63228
LJ          -1.64622        -2.79951        -3.95626
LJ           3.10871        -6.45145         2.77601
LJ           5.47514           1.946          3.5261
LJ         -0.788348        -6.03642         2.36512
LJ          -5.59087         1.03812         1.76374
LJ          -5.58581         -4.3292          2.3695
LJ           6.38351        -3.84309         2.04582
LJ          -4.09858         1.18889         5.68481
LJ          0.592898         2.31371         2.04998
LJ          0.114611        -1.47092         1.83659
LJ           1.25456         4.89673         -4.3659
LJ           3.02366          -5.118         2.75417
LJ            5.0655         3.69138         4.88742
LJ           1.29245        -4.85346        -3.70594
LJ           5.28334         2.60228         2.17087
LJ           1.96329       -0.970389      -0.0680706
LJ          -2.56613        -5.49635         6.27637
LJ         -0.760077       -0.991899         1.97443
LJ          -2.07116       -0.289492         3.07068
LJ          -6.26095         3.60902        -1.36358
LJ           4.90124        -1.26406        -1.81748
LJ           4.16775        -3.49865         5.32393
LJ          -2.62777        0.682667        -1.32526
LJ           -2.2283        -1.88225         2.78941
LJ          0.635305       -0.839504         2.96643
LJ          -5.34335         0.92662         2.83187
LJ          -6.45596        -2.30486        -2.68513
LJ          -3.65302        -2.35893        -5.08275
LJ           3.52978        -3.59727         6.45925
LJ           4.36552      -0.0408022         3.99089
LJ          -3.12644         -2.1103         2.23187
LJ          -1.54716         3.50223        -4.11295
LJ          -5.83916        -3.98702        0.436001
LJ           4.03735         3.23997        0.476868
LJ          0.374867         4.90684        -2.18791
LJ          -2.03665        -4.54947         6.25438
LJ          -5.37887          2.4623        -2.13067
LJ          -4.92097         3.01837        -3.63906
LJ          -6.45937          6.0325         3.59011
LJ           1.41924        -2.70859       -0.170407
LJ          -3.97767        -2.11721         5.64912
LJ          -2.22322         5.04103         4.28574
LJ           5.81399         2.63521         -3.7523
LJ          -6.25163         2.94072        0.956223
LJ          -5.84413         4.98571       -0.275043
LJ           3.14964        -6.28141        -4.48701
LJ           -5.8985         4.18243        0.723186
LJ           2.44159         2.60228         4.99611
LJ           3.82733        -1.60066        -2.20695
LJ           4.38618         3.10226         1.98357
LJ         -0.694999        0.361506         1.38491
LJ        -0.0888752       -0.477069         1.08527
LJ          -2.33171        -3.44926        -2.21467
LJ           -2.9139        -3.33423         2.36664
LJ          -6.12706         6.25203         5.30991
LJ           3.59329        0.256378        0.911024
LJ           1.14287        -3.60855        0.721012
LJ          -1.24055        -2.45961         2.85703
LJ            4.7956         5.97729        -4.94313
LJ           -3.0087        -2.86296         3.37788
LJ          0.479996       -0.900368         4.50129
LJ            3.6237        -2.92925        -1.78671
LJ           2.71484        0.167114       -0.988305
LJ          -1.37567        -1.17406         2.82784
LJ           4.44318        -5.98239        -4.64772
LJ          -4.93456        0.263412        0.978969
LJ         -0.480291         1.18431         2.58226
LJ           -2.2094        -3.48167        -3.26002
LJ           3.95894        -2.90918         -2.8774
LJ          0.874724        -6.25099         3.88655
LJ           6.16531         5.53415         4.38685
LJ           5.91688        -0.22083        -1.60126
LJ           3.55451         4.38177        -3.19155
LJ           2.41971         2.22614       -0.592388
LJ           6.20026         4.26212        -2.06434
LJ           4.34619        -2.09282        -1.14617
LJ          -5.05828      -0.0166419          2.5437
LJ          -3.01308         5.72527        -4.39342
LJ          -1.40874        -3.33652        -1.82264
LJ          -4.96328         3.22712        -1.54362
LJ          0.413778         1.21514         1.86832
LJ           2.47097       -0.895885        -1.12979
LJ           2.65499        0.118619        -5.87969
LJ         -0.426618         1.54665         1.16485
LJ           5.23912         1.48977         2.58247
LJ           3.22815         2.23066         1.00202
LJ          -5.04998         -1.2384        -2.70068
LJ           5.68364         1.64863         4.57062
