108
#Comment!
LJ         -0.791251         3.52925        -2.16943
LJ           1.80388        0.306626         2.14388
LJ           3.13499         3.97705          1.1181
LJ          0.213516        -2.42601         4.38436
LJ           4.35236         5.20764        0.643859
LJ         -0.548532        -6.25016        -4.96882
LJ           6.35839        -4.36403        -3.46959
LJ          -2.70705         4.76551         3.65466
LJ           5.84206        -2.20678        -2.56187
LJ           2.07895         3.93533        -5.07177
LJ         -0.213956        -3.29342         5.16788
LJ           3.28187        -2.45393        -3.48955
LJ           3.59133        -6.12015         2.47934
LJ          -3.65827        0.733534         -3.9486
LJ            -3.862        -5.91706         6.22967
LJ          -4.56141         3.14944         1.13485
LJ          -6.13847        -2.71731      0.00338019
LJ          -2.44385       -0.371682         2.39553
LJ             1.351         5.07888        -2.64375
LJ           2.74181         0.19031         5.55076
LJ           2.88843        -4.56408        0.879705
LJ            -4.466        -1.32957        -3.15876
LJ           4.49959        -5.37366         -3.7209
LJ          -2.66704        -2.83376         5.62748
LJ          -1.43843        -3.79903         1.85124
LJ          -6.29419        -5.68883         1.11472
LJ          -6.18024         4.69887         5.62667
LJ          -1.38292        0.424981        -1.97754
LJ           1.21721         1.83764         3.23973
LJ            5.5614         3.17647         2.09814
LJ          -5.94433         1.50067         1.14116
LJ           5.62807         -1.0883        -5.69327
LJ          -1.06442        -5.81638        -6.45022
LJ          0.450531        0.532065        -2.27923
LJ            3.4756         3.23704       -0.194519
LJ          -2.09805         4.21596        -5.64755
LJ         -0.377073        0.739473       0.0317446
LJ          -1.19018         4.37916        -1.97249
LJ         -0.349791        -1.56563        -4.78737
LJ          -1.88492        -1.75694         1.77816
LJ          -1.23634        -3.27793        -3.39867
LJ          -4.71955          1.0568        -1.21402
LJ           3.01595          4.4505        -2.69281
LJ           6.22338        -1.29045        -6.32307
LJ          -4.71352        -1.19011         1.12998
LJ         -0.557127        -1.88704         2.66216
LJ          -2.03159         4.11806        -2.39876
LJ          -5.55985         3.12096       -0.218221
LJ           2.45863         3.82984         1.63749
LJ           4.02639        -0.49887        -4.51077
LJ          -4.93403        0.767017         -1.7421
LJ           5.17703        -6.29171        -3.71844
LJ           1.73496       -0.294745         2.54965
LJ          -2.17415        -2.51359         -5.9097
LJ          -2.76173        0.104204        -3.09803
LJ           5.27335        -4.47014        -2.44048
LJ          -4.68123         5.00996       -0.136865
LJ         -0.394369        -5.31705        -5.63408
LJ          -3.40265        -5.61686         3.46765
LJ          -2.09507        -5.11505        0.646737
LJ          0.408118         4.96408        -4.18854
LJ            2.8989         4.49566       -0.132624
LJ          -3.74937        -6.07041          5.7812
LJ           -3.3965        -5.81799         5.63385
LJ           -6.3109         5.84713        -6.04843
LJ           4.84377       -0.323852        -4.95841
LJ          -4.66978        -5.20779        -4.47111
LJ            -3.212         3.10559        -6.27991
LJ          -2.14489         -3.1683         4.06061
LJ           1.13685         1.06578         -2.3853
LJ          -5.78697        -2.96308         3.20952
LJ           5.84401         3.07758        -5.98836
LJ          -5.14146         -5.0042       -0.377634
LJ         -0.963844         3.84644        -3.27916
LJ          0.195882        0.666305       -0.211216
LJ          -4.05012        -2.67174        0.915886
LJ          -4.84474         2.63412         4.29075
LJ          -2.24062        -6.43571         4.77759
LJ          -3.25997        -5.55695         1.08313
LJ           4.82121        -4.80893        -1.13894
LJ            1.9932        -5.38382         2.81858
LJ          -2.65153         4.48538         3.75316
LJ          -4.64254         3.51127        0.710976
LJ          -3.36605        -1.70842        0.682267
LJ           4.56071        0.549602        -4.25184
LJ           3.99665         2.16294      -0.0245933
LJ          0.127318        -3.42658        -1.34322
LJ           3.71385        -5.14232         2.62503
LJ           3.40471        -1.93546        -4.50762
LJ           2.40181          1.1411        -3.18311
LJ           1.34615        0.665333        -5.22477
LJ          -5.24149         4.55994         5.85649
LJ          -5.63684         0.76518       -0.823107
LJ          -2.94905         3.75311         2.30561
LJ          -6.21459        -1.01341        -5.67009
LJ           2.50087         4.86366         4.51499
LJ           5.26096         1.06393         3.07003
LJ          -6.46065        -6.06509        -5.23849
LJ           3.20108        0.835953          5.8512
LJ          0.850157          5.8374        -6.33329
LJ         -0.925838         -6.1562        -2.13228
LJ           3.83485        -1.29188        -4.09987
LJ          -3.94892       -0.238353          5.2412
LJ          -5.30703         1.41652        -0.17502
LJ           5.34921        -1.65171        -1.18696
LJ            3.2261       -0.802779          5.8052
LJ           1.16348        0.590638         5.62632
LJ          -1.94323        -4.99119         6.20013
