108
#Comment!
LJ         -0.556021        -5.44665       -0.444274
LJ          0.792476        -4.82242        -1.18098
LJ           3.66653         1.23765         1.56075
LJ          -4.99008        -5.74143        -2.83244
LJ           0.89611        -5.21284       -0.231747
LJ           5.29768         2.24228        -2.04835
LJ           4.66924        -4.97054         -1.3438
LJ           6.42243         6.02801        -5.18937
LJ         -0.607061        -4.38524        -3.00295
LJ         -0.493975         4.30066        -5.50964
LJ          -1.78829         2.71803       -0.904046
LJ           4.13083        -3.27107         3.91228
LJ          -1.22673        -4.45093         5.81899
LJ           3.30409        -3.37455        -1.22375
LJ           3.02439         2.58445          1.8749
LJ          0.210686         2.54443          2.5753
LJ           5.68818         5.10485       -0.693771
LJ           1.50599        -6.32239        -1.73794
LJ          -1.32329        -3.98448        -6.24498
LJ            4.2915        -3.98566         4.23378
LJ           2.49263        -2.66611       -0.186971
LJ         -0.748272         2.90676         4.99477
LJ         0.0160671         3.46985        -4.58924
LJ           1.59753          3.8451        -2.95728
LJ          0.146148        -5.49204       -0.610217
LJ          -3.87387        -1.73706         2.95711
LJ          -3.64685         3.76201        -2.04356
LJ          -3.39678         5.23369        0.843309
LJ          -2.43893        0.762511         2.54082
LJ           4.92031        0.260066        -1.74005
LJ          -2.81764       -0.128107         1.18374
LJ           3.73132       -0.235273        0.952258
LJ           2.52161         3.26431         1.66113
LJ          -5.17184          5.5837         4.00725
LJ            5.5971        -4.94948         2.22584
LJ          -4.75564         3.40077       -0.803398
LJ          -5.78167        -1.57722         1.54999
LJ          -3.46414        -1.21437          2.6762
LJ        -0.0169618         4.89787         3.30559
LJ          -5.59411          2.9217         3.80956
LJ           2.16375         2.64857        -2.68267
LJ           3.52042       -0.968575         2.74939
LJ         -0.788576       -0.811481         3.86605
LJ           3.86647         0.92816       -0.788394
LJ          -2.34321         1.82772       -0.748826
LJ          -5.82937         1.45677         3.15824
LJ          -6.21798        0.519243         3.26139
LJ           1.22423        0.225951        0.554423
LJ           4.97912         5.85629        -4.79309
LJ         -0.943986        -5.36836          5.0995
LJ           1.29575         6.27344        -6.08042
LJ          -4.06223       -0.878297         6.29316
LJ          -1.75377        0.895986         2.99129
LJ          0.344413        -4.34353       -0.842135
LJ          -5.44679         1.82205         6.14906
LJ         -0.194159        -5.07586        -5.36315
LJ           -4.6482         2.56999         3.77413
LJ          0.729999         3.97668         2.66741
LJ          -3.49726         2.34834         4.23394
LJ          -5.44517         4.05767        0.416762
LJ           4.09182        0.452752         6.21317
LJ           3.36437         4.12005         1.28672
LJ          -0.92314        -4.03082        -5.34933
LJ           2.08265        -6.17812         4.57757
LJ           3.79852        -2.00029        -4.64325
LJ          -4.35524          5.7466        -6.18767
LJ          0.672347         2.88112        -5.43621
LJ          -4.82748        -2.86952        -5.21615
LJ           -2.3976         6.12575         1.87749
LJ           5.17089         3.92663        -6.40863
LJ          -3.97236         4.56299        0.906447
LJ           5.57039        -5.02691         1.43856
LJ          -2.32301         1.21381         5.70226
LJ           5.23673        -1.98485        -6.03854
LJ          -2.89454        0.487993        -3.81695
LJ          -3.20334        0.937756        -1.45182
LJ           3.92265         1.73134         4.61123
LJ          -5.39402        -4.20701         6.20558
LJ          -6.21775        -3.09912         3.18434
LJ          -2.33158        -4.52886        -4.63246
LJ          0.923035        -2.80411         4.86562
LJ          -2.80307         -3.9381        -3.91073
LJ          -4.58081       -0.850269          -6.268
LJ          0.492535         2.85668        0.542645
LJ          -5.67729         4.88207        -1.83834
LJ           5.87158        -5.35695         -5.0723
LJ          -3.75088        -4.73251         5.64385
LJ          -3.28136        -1.61438         1.19881
LJ           4.58657         3.39428        0.825668
LJ            5.7186        -6.02108        -1.65637
LJ         -0.347606         5.32917          -4.916
LJ           5.59277        -2.90913         2.34633
LJ          -3.18486         1.61834         6.08021
LJ         -0.792347          3.9254        -2.49458
LJ           4.63208         3.03936         6.40986
LJ          -1.30358        -2.43834         5.32387
LJ          -5.36009         3.17121        -1.69394
LJ           3.86218        -4.23183        -1.75956
LJ           5.89493         3.63447        0.849995
LJ           6.17684       -0.465898        -5.69773
LJ         -0.399077        -1.71459         3.96528
LJ          0.993101         1.31014          4.5334
LJ          -5.27406         4.10254        -3.59108
LJ          -1.33043         6.10546        -1.56362
LJ           1.54472        -4.14164         5.66087
LJ          -4.30696          5.5405        -1.83838
LJ          0.652002         4.47264        0.668982
LJ         -0.815258         6.40893        -2.59532
