108
#Comment!
LJ           4.58008         5.33191        -4.17202
LJ          -4.33769        0.364693        -3.97805
LJ          -3.99226        -1.23887       -0.296698
LJ           1.62724        -6.42733         3.05641
LJ         -0.643632        -1.42447        -3.91093
LJ           4.67664        -6.28047         3.75097
LJ         -0.984321        -2.58277         1.04568
LJ        0.00476775       -0.529422        -3.34272
LJ          -5.89658        -2.58603        -5.99224
LJ           1.52426        -2.93585        -4.24006
LJ           2.76943          5.9909        -5.80149
LJ           4.79227        -5.21578        -1.64405
LJ          -5.40912       -0.799245       -0.504162
LJ         -0.591545         4.03003        -4.11067
LJ          -1.24378         2.00453        -1.47553
LJ          -4.13262         4.94254        0.149132
LJ            1.3238        -1.49734        -3.99572
LJ          0.324866        -1.33711        -5.92732
LJ          -2.06033       -0.681085        -2.03329
LJ           2.27932       0.0928117       -0.507472
LJ          0.458168        -3.62454        -4.28981
LJ           1.85745        -2.01308        -6.03387
LJ           3.79999         2.01043         2.27654
LJ          -6.24925         0.30444         2.64684
LJ           6.38242       -0.533625         -6.2359
LJ          -4.41321       -0.821279        -5.78216
LJ          -5.01608       0.0954983        -6.01054
LJ          -1.84008         2.85839        -5.99391
LJ           6.10177         1.69189         5.48492
LJ           6.07001         3.61769          3.9483
LJ         -0.827319         3.56825         -3.1303
LJ           1.84719        -2.20722        -4.83148
LJ           4.27133        0.231683         -4.9352
LJ         -0.172276         3.45909        -5.09152
LJ           1.05687        -4.41126        -4.44511
LJ           3.48867        0.434891        -2.15604
LJ          -1.88573         5.54067            3.09
LJ        -0.0589425        -1.56455       -0.263585
LJ          -2.05568          4.3083         1.14634
LJ          -3.32244        -0.24925       -0.150796
LJ           1.57204        -2.00223       -0.695534
LJ          -3.65262        -1.99405        -4.75144
LJ          -5.38257        -6.00895         1.09856
LJ         -0.702524        -3.32972     0.000802673
LJ         0.0132497        -2.53397        -1.06308
LJ          -5.41689         1.17817         1.85906
LJ           2.58516       -0.622004        -2.33763
LJ          -2.41028        -2.33509        0.686572
LJ          -6.13526        -2.44339        -3.82572
LJ          -5.51471        0.310708       -0.849851
LJ           6.44285         1.99934         1.94466
LJ           4.29697         1.59966         3.35901
LJ           2.75634         3.86345        -6.20989
LJ          -3.62735         3.31339       -0.273467
LJ          -0.75275         2.83891        -2.34882
LJ          -0.47915         -2.7141          4.7866
LJ          -1.87884        -1.45041        -6.42747
LJ           5.20976         1.13947        -2.89713
LJ          -3.20125        -3.73356        0.590563
LJ          -4.20651       -0.372555         -1.0074
LJ          -4.46604         5.59385          4.1128
LJ          -2.16356         3.98231        -4.95912
LJ           3.33925         -5.3098       -0.643089
LJ          -4.57286        0.518899       -0.607443
LJ          -3.41652         2.28809        0.719489
LJ          0.179227         5.08227         1.73018
LJ          -2.63439        -5.13277        -1.03453
LJ           1.91834        0.609676         0.56819
LJ           2.57262        -1.38475        0.227512
LJ           1.43788         4.64013          1.9335
LJ          -1.05306        0.767574         1.57618
LJ           2.31601        -4.69211      -0.0652153
LJ         -0.913617        -1.52175        0.369909
LJ          -1.45276       -0.751768         1.32537
LJ          -4.03091         2.34355         4.07666
LJ          -4.24981        -6.05333         0.37269
LJ           5.84491        -6.08249         6.20982
LJ          -1.84393        -3.21081        0.979236
LJ           1.17874        -4.31586         5.65423
LJ          0.913134        -3.23697        0.872936
LJ          0.525838         4.08538         3.63678
LJ           3.84936       -0.991622        -2.20222
LJ           1.90994        -3.11632        -0.95175
LJ          0.609499         -3.3223         2.05802
LJ          -5.06008        -4.05324        -1.52102
LJ          -4.54691         1.19676        0.713863
LJ          0.196973         1.04052        0.855787
LJ          -1.56714        -0.96321        -1.09412
LJ           6.40855      -0.0135992        -0.42631
LJ         -0.302065        -1.53778         4.12656
LJ         -0.253611         -2.1061          3.0358
LJ            4.9244       -0.710426        -3.97659
LJ          0.903644        0.263865        -1.29511
LJ           3.22035         2.03729        -1.75672
LJ           4.58366         3.24448        0.486084
LJ           2.75806       -0.249058        0.709667
LJ          -5.14169         0.14014         0.21191
LJ          -3.21896          2.0318       -0.523527
LJ        0.00168544        -2.41832        -4.07787
LJ          -3.81847         2.99998         -1.3441
LJ          -1.28297          0.3558         2.62888
LJ           2.15874        -5.82211     -0.00487268
LJ          0.575695       -0.817773         3.84818
LJ        -0.0986089        0.519868         2.29262
LJ           3.84111        0.226966         1.47262
LJ           2.78058        0.973538         1.88984
LJ           3.24315         1.14517         -2.7629
LJ           3.81401        0.788662         2.50399
