108
#Comment!
LJ          -4.52215        -1.80623        -5.71103
LJ           2.20936        -1.45937         1.12542
LJ          -2.14328         5.24813         3.05801
LJ         -0.341435         5.88316        -5.86476
LJ           -5.3191         2.44937         -4.7952
LJ          -2.81554      -0.0551087         1.57285
LJ          -0.53044        -1.66379         6.44643
LJ         -0.595796        -4.25922        -1.45459
LJ          -6.44448         5.58759         2.68972
LJ          -6.33829         1.15162        -2.70875
LJ           1.63527         1.65714        -3.40894
LJ           5.53134         5.62255        -4.92339
LJ            2.1664         6.19309          4.3337
LJ          -1.43283         6.42089        -6.40655
LJ          0.249548         1.24455          2.7534
LJ          -5.27509        -3.50203        -5.60342
LJ         -0.950968         2.97762         5.41415
LJ         -0.104238        0.906358         5.60821
LJ           3.50695         1.85374        -1.22828
LJ          0.483867         6.23335        -3.20581
LJ          -4.63228         4.01609        -5.97068
LJ           2.59125          3.8951       -0.914481
LJ           5.38236         1.90428         3.75574
LJ          -4.72226        0.131768         1.44338
LJ            3.2852        -1.91392        0.717789
LJ           5.30957         5.63652         4.56015
LJ           1.68699        -1.95398        -1.23864
LJ          -3.42343         3.98773        -4.75739
LJ           2.68385         1.32467         4.83086
LJ           6.32547         3.30222         1.04939
LJ          -2.22018        -1.67411         5.56167
LJ          -2.33855       -0.830093         4.23904
LJ         -0.361151        -2.47224        -1.84176
LJ          -4.08501         2.72715        0.773796
LJ          -6.43794       -0.573404         3.32038
LJ          -6.28175        -6.18154        -4.57367
LJ           6.23184         3.45811         1.03966
LJ          -6.03019         1.39401        -6.44933
LJ          -2.75855        -1.06533        -3.97579
LJ           2.61875         5.87764         1.40385
LJ           2.42823         1.68784        -2.47134
LJ          -5.44478        -3.50894        -3.62962
LJ           3.80653         3.42705        -4.05157
LJ           6.00711         1.82395        -3.54401
LJ            1.5187        0.232124         1.13548
LJ           2.74509         2.68265         -2.8096
LJ          -3.95422         2.51632         4.57024
LJ          0.712575         -1.0543         3.69866
LJ          -5.05883        -4.38705        -4.49593
LJ            5.8968          4.6921        0.154159
LJ           1.94631        0.305245        -1.68553
LJ          -1.72388         4.12246         2.73601
LJ           5.62048        -5.34648         -2.0995
LJ          -3.94178       -0.782733         5.81336
LJ          -6.36794         2.59581        0.658526
LJ           2.31266         -5.9103         1.89062
LJ           1.50657        -6.19116       -0.797408
LJ           5.17977        -1.71972         2.40028
LJ           -5.3337        -4.81635         1.04869
LJ          -1.12917         5.70781        -2.91497
LJ          -3.05848         4.55013         6.11752
LJ          0.200822         3.00882        -1.41956
LJ           2.73478        -6.00993        -4.13325
LJ           1.04192         1.08328         5.52162
LJ          -5.34181         0.25076        0.985465
LJ           5.17506        -4.07975         3.35429
LJ           -3.8769         4.20816        -6.01152
LJ           5.24913        -3.08383        -4.23676
LJ           5.90212          1.3916        -4.10171
LJ          -5.76205         4.64249         4.29468
LJ           2.63109        -5.02041        0.461485
LJ          -1.88804        -3.03577       -0.251707
LJ          -4.05795         -3.3948        0.532724
LJ          -4.56118        -3.17964         2.20518
LJ           1.76286         -1.0542         4.02522
LJ           4.26545         3.54448          4.3001
LJ          -5.19277       -0.844719         2.51199
LJ          -4.15519         1.34875         3.04713
LJ           3.10742        0.373902       -0.328203
LJ          -1.01772       -0.495637        -6.13461
LJ          -3.10887         1.00871         -2.6003
LJ          -1.13275        -1.50973        -5.90951
LJ           -1.0351         1.12393        -3.88092
LJ           3.41277        -5.91272        -2.84722
LJ          -3.53762         1.46306        -3.25116
LJ          0.972159         5.89949        -1.58559
LJ          -4.62168        -1.93932         -2.0083
LJ           3.05127         4.03679         0.10216
LJ            3.8224          4.3696        -1.83098
LJ            4.5435       -0.853543       -0.898198
LJ           3.67855         6.44478         1.19166
LJ        -0.0877224        -2.00928        -4.10191
LJ           1.83666       -0.698848         3.15676
LJ          -4.80581        -2.23415        -2.42628
LJ           5.99597        0.250258        -6.27995
LJ          -4.56965         3.33042        -1.45682
LJ           4.83499         4.73092        -1.54529
LJ          -2.27758         6.00409        -3.51714
LJ          -2.59732         1.76493         1.66142
LJ           2.16984         2.48286        -5.92879
LJ          -3.74833          1.5092        -5.42984
LJ          -5.43051        -1.14092        -1.91157
LJ         -0.951898        0.977927       -0.512092
LJ          -6.34734        -3.13835        -4.79827
LJ         0.0136337        -6.27225         1.39524
LJ          -4.45545          1.5239         3.83195
LJ        -0.0346424        -2.77469         4.94141
LJ           6.42184         3.84268        -2.00122
