108
#Comment!
LJ           4.28175        -3.16698        -3.36364
LJ           -1.6351        -4.14557         2.51381
LJ          -5.56567        -4.76255          2.8914
LJ          -5.26336       -0.429657        -6.39388
LJ           3.35534         4.61203         4.08361
LJ            5.2318         3.31703         1.21587
LJ          -1.02306         3.45951        -3.40999
LJ          -2.10147        -3.67053         6.09368
LJ           2.55934         1.11022         -3.7782
LJ           3.97778        -4.14323         5.17624
LJ          -4.91978        -1.48827        -1.74173
LJ          0.674774        -1.29101         1.58491
LJ          0.804724       -0.875854        -1.99841
LJ          -3.67367        -6.23096         2.64478
LJ          0.624451        -5.48589        -2.19907
LJ          -2.93358        -1.18661         4.35229
LJ           5.50618        -4.86157        -6.02961
LJ          -1.37344        -4.90662         4.43994
LJ           3.56421        0.522905        -2.17252
LJ          -4.61135         5.26861         5.08461
LJ          0.106384         3.93749         1.60797
LJ           5.12598        0.538987        -2.21759
LJ          -1.79256         5.80059        -4.69118
LJ         -0.839475        -5.78044        -1.09187
LJ          -1.46163        -3.14838        -2.24748
LJ           4.67622         4.19785        -5.87523
LJ          -4.62824         4.17866         1.57343
LJ            3.0673        -4.39199        -3.46009
LJ         -0.211436        -5.68818         4.10071
LJ           5.82242         4.16852         -2.8231
LJ          -3.73346         5.90173         1.70184
LJ           4.33901         4.28029      -0.0241425
LJ          -3.28181         -4.7585         5.24939
LJ          -1.35409       -0.970327        0.197942
LJ           -5.0101        -3.10913         3.13964
LJ          -5.81779         3.26211        0.393852
LJ           1.62298       -0.225851        -2.46547
LJ           -1.3345         3.01986         6.31515
LJ          0.732389         4.45397        -1.61802
LJ          -2.19592        -4.08516         5.23643
LJ           0.26519        0.389847        -4.83065
LJ           5.30705         2.84357         6.26599
LJ          -0.87386         1.91749       -0.682763
LJ           5.71688        -1.31997         1.22527
LJ          -4.34689         6.43261        -3.11637
LJ           5.35911        -1.20235        -4.89332
LJ          -2.94306        -2.01896         4.00417
LJ          -3.96014         5.28703          3.6363
LJ            1.7134        -1.76954         4.05303
LJ           4.84384         -4.8972        -5.76739
LJ          -3.91978        -2.41867        -4.95136
LJ         -0.378085         5.04542        -6.44355
LJ          -4.20979        0.170091          3.3872
LJ           5.27704        -3.57626       -0.342749
LJ          -3.96619        -1.11052         1.56111
LJ           4.17782        -5.48738        -2.41455
LJ          -1.87696      -0.0456245        -3.51823
LJ           3.44599        -1.41173         1.60526
LJ           4.80105        -1.70902        -6.41799
LJ          -4.39518         3.74997        -4.66723
LJ          -6.27321        0.390422         2.03089
LJ          -2.45577        -2.54956         2.98024
LJ           4.24682       -0.939106        -2.18579
LJ          -3.63221        0.170124        0.162462
LJ          0.246464         4.80697         6.27427
LJ           4.16734         -2.6721       -0.585781
LJ            -2.257          5.8753        -2.88907
LJ          -4.32074        -6.12053         3.28597
LJ            1.8908       -0.637673        -2.83319
LJ          -6.06725         -2.9551          4.8522
LJ           5.92315         0.68226         5.58809
LJ          -6.00999         -5.6682        -5.52474
LJ          0.431852        -2.95598        -4.54032
LJ          -4.59932        0.234778         3.57276
LJ           5.01335        -4.84364         4.87213
LJ          -4.08908       -0.535437       -0.868744
LJ           2.88351        -5.21415         6.32113
LJ           1.23474        -5.14448        -1.85263
LJ          -4.87411         1.30741        -5.86073
LJ          -3.81967       -0.812043         1.51449
LJ           2.86188        0.982114         2.52101
LJ          -2.78822            2.22          3.5706
LJ       -0.00167399          -6.273        -3.44824
LJ          -5.30862         -3.0327        -4.73577
LJ           5.82383         1.53656        0.732701
LJ         -0.901101         3.66001         1.09982
LJ           5.75954        -4.87927        -6.43604
LJ           2.50557        0.416862        -1.55266
LJ          -3.36216        -5.45464        -6.22673
LJ           2.53249        -2.97676         2.91427
LJ          -6.39168        -2.70748         5.89336
LJ           5.24923        -4.20167         3.80307
LJ           5.47556        -1.71434        -4.78088
LJ          0.599291        -2.97095         6.14171
LJ          -4.09638         5.68535        -1.83892
LJ          -3.37551        -1.10176        -0.24139
LJ           3.44848         1.66403         2.32009
LJ           3.86967         4.82366         6.27007
LJ         -0.901733       -0.933544         2.53635
LJ           3.94719        -4.89636          5.8665
LJ          0.572476          2.1955         2.68803
LJ          -5.85539        0.476153         3.68633
LJ            1.0157         5.32519         4.96483
LJ          -3.05956         3.01936         4.43202
LJ           -2.3866         3.57906         4.83033
LJ          -1.22554          2.6302         5.63023
LJ           5.93145        0.967533        0.422137
LJ           1.23975       0.0216351          2.2668
