108
#Comment!
LJ          -1.36707         3.38361          5.3784
LJ           3.27831        0.100722          6.2002
LJ         -0.936233         2.51064        -6.28938
LJ           2.18459         3.50962         1.58699
LJ         -0.264598        -3.82957        -3.86768
LJ          -2.40946         5.74101         2.68261
LJ          -2.77064         0.18436         5.65027
LJ           2.30665         4.45481         3.79946
LJ          -2.07892         0.53616        -4.80392
LJ          -6.09014        -3.24309         3.45271
LJ          -5.95826        -2.34621         3.14517
LJ          -5.22091        -5.50088         5.36878
LJ          -6.34167        -3.46316         -4.6011
LJ          -4.73776        -1.18403        -5.12457
LJ           0.56556         6.21192        -3.61423
LJ          -1.19185        -2.72132        -5.77797
LJ          -4.14348         3.13203         1.98569
LJ          -5.89083         -3.3705         4.79106
LJ           5.28626        -5.34626         5.40745
LJ          -4.38516        -4.97493         4.47505
LJ         -0.437601        -6.04945         3.55576
LJ           2.55774        -1.24621          5.0146
LJ           2.71215         3.88455         2.41717
LJ           2.35811       -0.700675        -3.85454
LJ           -2.2701         3.43835         3.20502
LJ          -3.26398        -1.41439         6.25693
LJ          -4.82196         1.99873        -5.07174
LJ          -4.68851         4.76516       -0.428578
LJ          -5.77374        -5.75543         3.48249
LJ           4.84821         2.04662        -6.33021
LJ           5.87243         3.94798         4.42139
LJ          -4.47966         2.32315         4.58651
LJ           5.99277        -1.03806        -5.78425
LJ          -5.66451        -1.55117        -1.69644
LJ            1.3088          -1.347        0.217619
LJ           2.13425         1.37618        -1.49508
LJ           2.06378        -4.19879         6.09486
LJ           2.73529         2.34816         2.36942
LJ           4.71777         6.45457        -3.36438
LJ          -3.65107         2.42153         3.25625
LJ          -6.06184        -6.45564         3.49264
LJ         -0.268445         4.04938         2.23732
LJ          -4.46392        -6.29712          3.3337
LJ           6.46065         1.26282        -3.60066
LJ           5.83788         3.69489        -6.12808
LJ          -2.84525         4.21654         1.44765
LJ          -2.87674        0.832267        -3.01929
LJ          -1.15546        -2.33047        -1.09348
LJ           4.06171          6.1956        0.503688
LJ         -0.842051         2.36718        -3.57422
LJ          -4.67139         3.85417         3.23685
LJ           1.58967        -2.30887        -2.07158
LJ           5.28584         0.90817        0.396657
LJ          -4.25029         3.57767         5.17377
LJ          -3.06994        -3.16608        -4.91068
LJ          -3.47533        -4.75813         6.01385
LJ           4.38663         5.45699        0.269721
LJ          -5.20907       -0.161222         2.89319
LJ           4.26667        -5.00417         2.79398
LJ           4.19768         5.41983        -2.21481
LJ           3.74739          4.9654        0.805179
LJ           5.76755         5.36726        -3.51151
LJ          -5.18532         1.37568          1.0052
LJ          0.439505           3.014          3.5701
LJ           4.07607        -2.99247          0.8418
LJ          -3.57475         4.98462         6.34257
LJ          -2.10207        -1.60472         1.51989
LJ          -5.10753          4.5377        -3.45208
LJ          -1.60985         1.07925        -1.23722
LJ           3.79772         3.62907        -5.56183
LJ         -0.901928         1.50916        -3.56744
LJ          -2.31921        -1.40238         4.48867
LJ          -2.36564        -1.96873        -1.48308
LJ           1.69113         1.02351        -4.09894
LJ         -0.948301         2.25521         5.45782
LJ          0.356122        -1.39456        -3.80906
LJ          -2.61132         5.75225         -1.3729
LJ          0.810349        -1.57054          -2.563
LJ          -5.10044         5.16249        -1.21804
LJ           1.99307          3.5727      -0.0272735
LJ           -6.0763           3.356        -2.94514
LJ          -3.95846         5.38786         -5.6921
LJ           5.03121        -5.28046         2.34226
LJ         -0.597004         6.27534        -1.42767
LJ         -0.394112        -4.23119        0.382418
LJ          -4.46447         5.11413        -3.39511
LJ           1.73054         3.22598        -1.71195
LJ          -3.88338          2.8063        -3.56674
LJ          0.585081       -0.872351        0.494698
LJ           2.36523        -1.31801        -2.24181
LJ          -1.47425         3.98976        -5.12575
LJ           3.93455         3.41878        -4.15819
LJ          -5.47462        -4.18736         1.77901
LJ          -3.05939          5.7421        0.078755
LJ          -1.75808        -6.00662        -3.24084
LJ          -3.87343       -0.784345        -2.28347
LJ         -0.593946         3.64366        -3.47947
LJ          -1.13885         2.01902        0.279286
LJ          -1.19346        -4.96582         1.77258
LJ          -1.64992       -0.576452         2.68236
LJ          -4.44393        -3.21404         2.39325
LJ           1.80647       -0.385839        -4.04375
LJ          -2.35095        0.441562         1.67536
LJ           1.03454         4.63445        -5.23267
LJ          -1.33016         2.25086         4.98981
LJ          0.765401        -2.13394         2.87887
LJ          -1.64555         1.95314         5.79902
LJ           -4.6205         6.13772        -1.56056
