108
#Comment!
LJ           1.02418        0.534107        -2.38712
LJ           4.16312        -1.09551         4.49787
LJ           3.88888        0.646415       0.0843226
LJ           4.51219         2.18698        0.217956
LJ          -4.49246        -6.00449        -4.58336
LJ           4.09276          3.1466        0.793047
LJ          -2.99865        -0.45885         3.71892
LJ           4.15735        -1.81436        -4.09101
LJ          -2.71146         3.09652         2.32224
LJ          -3.56874       -0.598819        -5.86696
LJ          -2.03678        0.632086        -5.41636
LJ          -3.32121         3.94728        0.936907
LJ           1.34861        -6.01991       -0.623731
LJ          -3.49494        -2.68067        -1.03684
LJ          -1.66437         2.03392        -5.13333
LJ         -0.843975        -2.27371         3.29545
LJ          -1.17999        -2.93358        -6.37095
LJ         -0.623038         5.94993        -5.40488
LJ          -2.31071         -2.7994        -5.22739
LJ          -4.24634         6.08791         6.27174
LJ          -2.37568        0.803994        0.408283
LJ           3.60256         5.73341        0.955341
LJ           6.04043         1.29986         6.24444
LJ           1.10014         -3.6866         2.00952
LJ          -3.37997        -1.48004      -0.0618501
LJ           6.35389         6.31938       -0.656913
LJ          -5.61777        -5.84523       -0.317931
LJ          -4.82146        -0.55467        -5.46354
LJ          0.641727         5.08384         1.30589
LJ           1.17234       -0.476249         3.43182
LJ           1.62503         4.44402        -4.35616
LJ           3.10922         6.01683       0.0393021
LJ           5.13936       -0.186717          4.6135
LJ            3.4217        -2.73271        -2.50104
LJ           5.26714         4.40593         1.92412
LJ         0.0744929        -1.34618        -3.56501
LJ          -3.71423        -6.39332          5.0315
LJ          -3.65161       -0.042236         1.91555
LJ          -1.26156       -0.358795         5.18979
LJ          -5.50055         4.60942       -0.986086
LJ            5.6523        -2.77009        -2.43024
LJ            1.4559        -4.44393         4.26394
LJ         -0.213451        -1.99625        -1.36801
LJ          -2.72738       -0.652358         2.33731
LJ           4.04218         3.05305         5.23819
LJ           5.96511        0.717598        0.445421
LJ          -5.04013        -3.31226        -2.87056
LJ          -3.50119         -1.2504         6.07211
LJ           3.45458        -1.47708         5.02093
LJ           4.78317        0.334574        -3.52459
LJ           -2.0896         -3.3894        0.515582
LJ          -2.65814         5.96883         -3.2512
LJ          -3.94196         6.31728        -2.65918
LJ           3.56217         4.81045        0.321053
LJ           1.83273          5.6127        -2.18829
LJ          -2.99288         6.13293         5.84047
LJ           4.67496         3.05607        -3.36325
LJ          -4.36668         4.43538        -2.54452
LJ           4.06011        -5.56213        0.664402
LJ          -2.85074        -5.46007       -0.598164
LJ            -2.592       -0.123002        -6.34805
LJ          -2.88238         4.17504          2.0012
LJ          -5.69639         5.74418        -6.21855
LJ           4.70103         6.05436         1.05479
LJ           5.99937         6.25099         1.65556
LJ           3.31363         6.28322        -1.54168
LJ           4.18052         -3.6015       -0.123439
LJ           1.70003         2.71298        -5.03345
LJ           5.41919        -1.75822        -2.64303
LJ           2.47314         3.44947         2.43628
LJ          -1.16744         1.29146         1.35773
LJ          -3.19399        -1.12148         1.38761
LJ          -5.63907        -4.47512         -2.7064
LJ          -2.27644         -3.7126         5.33584
LJ          -4.99212        -3.65249        -4.09659
LJ           1.72918        -2.11243        0.134293
LJ           3.84456         1.47357          5.2374
LJ          -1.90776        -1.95796          4.2439
LJ          -5.65547        -6.45027        -3.97275
LJ          -2.76464        -3.95016        -6.31763
LJ          0.573842       -0.651528        -5.53344
LJ           3.98662        -1.91854        -2.70413
LJ           3.48724        0.251439       -0.724996
LJ          -2.13305       -0.963912          4.6178
LJ           1.37819         5.12338        -5.82495
LJ          -3.82467       -0.646302         0.78786
LJ          -1.43601          1.3806         2.44801
LJ          -4.51925          4.6997         -5.9395
LJ           3.48874        -1.86753        -1.56817
LJ           2.04775         5.72263       0.0487836
LJ          -5.57951         4.41382         4.33787
LJ           5.93695       -0.271016        -2.33493
LJ          -5.81631         4.82107        -4.41847
LJ           1.87148         1.39834        0.290435
LJ          -4.74293        -6.02174        -3.40624
LJ           4.54063        -2.19455        -1.80192
LJ          -3.21996        -1.40506         3.34133
LJ          -1.06036        -5.49675         4.79238
LJ         -0.967473         -4.1831        -4.76612
LJ           6.24415         4.42316        -1.13459
LJ          -1.51333        0.109162          1.2791
LJ           2.40023        0.280957        -0.41917
LJ           3.62489        0.798542        -4.16231
LJ         -0.971398        0.666243        0.549685
LJ          -6.25808         2.69794          1.7146
LJ           4.35755         4.01118         1.49506
LJ          -3.15146        -3.25904        -2.33359
LJ          -5.82138         1.48274         6.13158
