108
#Comment!
LJ          -2.93311        -3.02053        -3.07034
LJ          -1.92656        -2.43076        -2.83792
LJ          -3.17226        -2.24872        -2.30016
LJ          -1.71845        -3.16484        -2.04514
LJ         -0.772061        -3.15633        -2.93882
LJ          0.493621        -2.20883        -3.37534
LJ          -1.39667        -2.30602        -2.13004
LJ        -0.0255216        -3.10327        -2.08577
LJ           1.63903        -3.27703        -3.17588
LJ           1.74379        -2.00863        -3.04387
LJ           0.98898        -2.59297        -2.42372
LJ           1.89036        -3.24468        -2.23237
LJ          -3.42096        -1.09011        -2.95924
LJ          -1.89754         0.13705        -3.16951
LJ          -3.05945        0.340065        -1.93318
LJ           -2.2126        -1.33993        -1.95466
LJ         -0.926329       -0.881166        -3.01328
LJ         0.0508835       -0.327177        -3.37995
LJ          -1.15811         0.40355        -2.24238
LJ         0.0812017        -1.06177        -2.15827
LJ          0.999423        -1.06967        -3.08511
LJ           1.82861        0.335679        -2.95088
LJ           1.14713       -0.354228        -1.77967
LJ           2.58843        -1.03442        -1.97032
LJ          -3.39921        0.971813        -3.37983
LJ          -2.53852         2.17866        -3.28355
LJ          -3.23108         1.81497        -2.25832
LJ          -2.20713         1.19689        -2.15208
LJ          -1.23606        0.928287        -3.00809
LJ         -0.293598         1.86273        -3.13143
LJ          -1.31675         2.26684        -2.41071
LJ         -0.384227         1.01551        -2.15434
LJ          0.921464        0.752431        -2.43613
LJ           1.76576         1.90352         -3.1012
LJ          0.909755         2.01907        -2.19338
LJ           1.76856         1.41667        -1.98842
LJ          -2.97859        -3.47243       -0.921588
LJ          -2.07391        -2.48648        -1.01399
LJ          -3.19245        -2.62676      0.00736668
LJ          -2.21319         -2.8791       0.0520232
LJ         -0.841856        -3.07201       -0.899497
LJ          0.100248        -1.84343        -1.29071
LJ          -1.24404        -1.64148       -0.199345
LJ        -0.0608408        -3.09659       -0.325973
LJ          0.583113        -3.02168        -1.20584
LJ           2.63056        -1.92628       -0.919465
LJ           1.08795        -1.99088       -0.293021
LJ            1.9206        -3.10329       0.0810005
LJ          -3.32224       -0.487282        -1.05658
LJ          -1.95592       0.0825001        -1.43271
LJ          -3.59918       -0.045731        -0.26666
LJ          -2.35109       -0.899427       -0.408113
LJ         -0.726259        -1.62159        -1.77163
LJ          0.142654        0.358675        -1.17724
LJ         -0.888526        -0.11625        0.101968
LJ        0.00860929        -1.13804        0.295775
LJ           1.07013        -1.15224        -1.28908
LJ            2.1766        0.118952        -1.24709
LJ          0.817369       -0.151327       -0.166588
LJ           1.88105        -1.03181      -0.0278585
LJ          -3.29145         1.41971       -0.872527
LJ          -1.91905         2.02949        -1.31827
LJ          -3.53366         2.14241       -0.324674
LJ          -2.18264        0.801831      -0.0897417
LJ          -1.16226        0.832344       -0.732884
LJ         0.0344968          1.9108        -1.35489
LJ          -0.97456         1.72009       -0.221153
LJ         0.0943827         1.33939       -0.336868
LJ          0.852749         1.06835        -1.26972
LJ           1.81894           2.151        -1.03788
LJ          0.889037         2.00709        0.145896
LJ           1.99879         1.38631        0.206241
LJ          -3.09118        -3.17275         1.08482
LJ          -2.21644        -2.05284         1.38982
LJ          -3.11705        -1.77992         2.05324
LJ           -2.2621        -3.43071         2.01862
LJ          -0.78256        -3.52816         1.34499
LJ        -0.0454786        -2.46107         1.14037
LJ         -0.680705        -1.64981         2.21029
LJ          0.192236        -3.05582         2.01351
LJ           0.77218        -3.27939        0.830713
LJ           2.21826        -2.23916        0.968973
LJ           1.23174        -2.28148         2.00173
LJ            2.0829        -3.36037         2.13328
LJ          -3.20987        -1.16493         1.21288
LJ          -2.45103      -0.0640791         1.01924
LJ          -3.00172        0.120685         2.16766
LJ          -2.37071       -0.766083         1.92158
LJ          -1.34796       -0.755442         1.04651
LJ         -0.254638       -0.346304         1.25093
LJ         -0.934969       -0.104057         1.87143
LJ          0.177669        -1.16214         2.56655
LJ           1.21922        -1.21345        0.963159
LJ           2.00322        0.275174         1.12683
LJ           1.48943        0.259873         1.91199
LJ           2.09112       -0.992184         1.83491
LJ          -3.19076         1.10024        0.917306
LJ          -2.16601         2.32627         1.02315
LJ          -2.97418         1.85148         2.46516
LJ          -1.83112         1.14459         1.81942
LJ         -0.922692        0.879099         1.40803
LJ         0.0203448          2.4314          1.0763
LJ         -0.934696         2.09738         2.40169
LJ         -0.182482         1.00917         2.42608
LJ           1.38379         1.30244        0.995878
LJ           2.30972         1.92536          1.0993
LJ           1.00691         1.75396         2.03073
LJ           2.41351         1.02582         2.41785
