108
#Comment!
LJ          -2.81172         1.68369       0.0904379
LJ           -1.7869        -1.83297         4.17115
LJ         -0.408007        -3.97157        -2.06828
LJ          -6.13681         2.45669         2.65339
LJ            5.3299         2.83956        -2.34264
LJ          -2.52671        -5.48559         5.92808
LJ        -0.0529948        -1.37459        -4.14698
LJ           2.29965         5.23071       -0.426078
LJ          0.272776        -1.64508       -0.178665
LJ          -4.97072         3.35557        -3.31386
LJ            2.8644        -3.03077       0.0862826
LJ          -6.27622        -4.18556        -6.39149
LJ           -2.3974        -3.58552         4.62817
LJ           4.28225         3.62882       -0.758571
LJ          -3.70313        -3.09826         3.09791
LJ            6.1235       -0.418959        -4.27081
LJ          -4.53417         3.71735        -5.84096
LJ          -5.89028         5.31218        -3.09168
LJ           2.05222         2.93362        -6.41549
LJ           2.58101         2.06306         1.65574
LJ           1.30918         4.19347         5.63495
LJ         -0.279302         1.83157        -3.83374
LJ         -0.297833        -2.26815        -5.07039
LJ           -5.4265          4.4768        -3.38024
LJ           2.00605         2.17471        -4.17306
LJ           2.97134       -0.175941       -0.637605
LJ            1.3711          3.9445        -5.23618
LJ           5.92773        0.055732         4.74215
LJ            2.2578         6.25028        -3.48008
LJ           2.97573        -1.40804        -3.98051
LJ           5.88975         5.23764         4.95074
LJ           2.55757        -3.96972        -1.23735
LJ           3.04592        -6.26366        0.972398
LJ          0.948765       -0.850442         5.96018
LJ           2.65647         5.55435        -1.82601
LJ          -5.41718        -1.69644        -5.88064
LJ          -4.52949         4.88957        -4.45646
LJ           1.09981         5.08885        -2.60899
LJ          -1.28447        -6.33918         5.77401
LJ          0.141868       -0.434034        -3.82429
LJ          0.176079        -6.37176          4.4752
LJ          -2.60038         -4.3045        -5.78144
LJ          -5.64153        -2.34993        -4.94169
LJ          -1.22505        -3.33101         1.56748
LJ          -2.63932       -0.192375         3.06526
LJ           1.11175         -6.4324        -3.91152
LJ          -5.94655         3.78786         1.65864
LJ           2.70779         4.82233         2.24174
LJ           5.43807         2.69561          4.3964
LJ          -3.03924          1.3714        -2.87144
LJ           3.13217         4.74877        0.697942
LJ          0.905743         1.17697         5.43098
LJ          -1.60302        -5.52958         5.56907
LJ          -6.12149         1.45052        -2.93595
LJ          0.942455        0.476196          2.4856
LJ          -0.17257        -3.25171        0.581567
LJ          0.332519         1.52901       -0.874748
LJ         -0.699037        -1.58619         -2.2808
LJ          -1.70221         4.20792       -0.490713
LJ           2.05137         3.27149        -5.77053
LJ           4.71368         4.46307         4.40143
LJ             3.091         5.99683        -2.71429
LJ           5.12122        0.721561         1.89442
LJ            6.4302       -0.915675        -3.15221
LJ           5.17006        -2.76071        -2.74419
LJ          -3.48307        0.577455         -4.3182
LJ          -5.14669        -5.96518       -0.333328
LJ          -1.53753        -5.59881         2.97601
LJ          -3.35078        -6.42368       -0.817136
LJ          0.958152       -0.733771         1.30941
LJ          -5.48231       -0.538166       -0.765845
LJ          0.619302          1.8933        -6.08753
LJ          0.208449        -3.32818         1.10978
LJ           -5.8623        -3.21255         3.38751
LJ          -6.36039        -1.64206       0.0326264
LJ           3.47487         4.43326         2.67807
LJ           2.42994        -0.70117         2.49466
LJ          -5.78223         -6.0563         -1.9179
LJ           3.05416        -1.42905         3.94468
LJ          0.316271         1.03192         2.70784
LJ          -0.15368          1.0963         5.13741
LJ          -3.04024        -4.19269        -3.15673
LJ           3.35247        -4.86231         -1.4772
LJ         -0.425056        -3.07576         6.30125
LJ        -0.0496341         2.07659         1.84331
LJ          -5.86102         6.07877        -5.84597
LJ           3.90221         6.19852        -5.03887
LJ           -3.7586          2.5951         5.86705
LJ           6.10402        -3.77619        -6.28577
LJ          -1.38518         5.61362         5.89494
LJ          0.906461       -0.841776        -1.48408
LJ          -2.03153         6.38581       -0.963659
LJ            5.6027         1.56458        -2.76779
LJ          -3.40626         2.06027         6.22042
LJ          -2.36539       -0.213323        -2.74972
LJ          -4.54367         3.64473        -5.29432
LJ          -3.98267        -1.79442         5.60042
LJ           1.49807         2.84433        -1.23791
LJ          0.784658        -2.12421         -1.5741
LJ          -6.44861         1.72026        -3.12982
LJ           5.41212         4.65801        0.735231
LJ           5.82102         4.06571         1.25703
LJ          0.342889         -2.1999         1.50186
LJ           2.03239        -1.53578        0.818837
LJ          -2.92834         5.00473        -5.31456
LJ         -0.541708        -2.27349        -1.73489
LJ           -4.9918         6.25007         4.77278
LJ           3.75832         5.74521        -3.25716
