108
#Comment!
LJ           1.68552        -4.08887         3.05266
LJ          -1.53335        -1.69753         2.73518
LJ           5.19497        -1.21082        -6.08534
LJ          -5.36313       0.0162042        -4.21317
LJ         -0.779833         3.93522        -5.97092
LJ          0.355954         -5.6598         5.34851
LJ         -0.560193         2.20611         -6.4346
LJ           6.40967          2.5645        -3.57063
LJ           2.00125         1.35578         -2.1451
LJ          -5.19559         1.19794         4.38385
LJ          0.401708         5.97073         1.82669
LJ          -1.54474         3.84097         5.48695
LJ          0.154328         1.22628        -4.49906
LJ           3.35582        -3.36486         6.36936
LJ           1.00532        -3.29511         4.81048
LJ          -2.81853        -1.15542         6.32057
LJ          0.845947         1.90598         2.85304
LJ          -5.33173        -5.20052        -3.87122
LJ          -0.39349         2.31837         3.38148
LJ           6.02369        -2.02351        -6.06452
LJ          -6.22044         1.85114        -5.92857
LJ          -4.29075          3.6115         -0.1123
LJ           3.59295        -4.94602         1.67108
LJ          -6.32495         1.65379       -0.541389
LJ           6.22577         5.17807         2.33214
LJ         -0.573429        -1.53301         3.04798
LJ        -0.0474961        -6.17085        -5.50719
LJ           1.76993         3.36187        0.951233
LJ           5.86038        -1.23267       -0.349701
LJ           5.50078        -3.53869        -2.08641
LJ           2.52172        0.670367        -1.92755
LJ           6.11089         5.28751         5.32727
LJ           3.00733        -2.10166        0.630358
LJ          -6.26945         -2.1174       -0.715631
LJ           3.55712         3.28342        -4.99566
LJ           -3.0311         1.06807         4.58039
LJ          -3.38174        0.954283         5.47986
LJ          -3.72559         2.65699         5.74202
LJ          -1.86664        -3.89384        0.641145
LJ          -3.32299        0.817654         4.43666
LJ          -4.65383        -5.97664         6.30126
LJ           3.28561        -2.16718         3.31001
LJ           1.00648        -2.95093         1.35316
LJ          -5.74935        -5.02496         3.63763
LJ           -2.3925       0.0450507         1.33906
LJ           2.48235        0.191188         4.57215
LJ          -2.44706         3.93414        -4.44988
LJ            5.8392        0.949927         2.60271
LJ           1.41338       -0.313262         6.14558
LJ          -2.98468        -5.62731         -2.1335
LJ           3.98334        0.179505          2.4084
LJ          -6.43528          2.9025          2.1259
LJ           2.44774        -4.99733        -4.37998
LJ           2.27289        -4.51559         4.11772
LJ           1.27212        -5.27715        -4.16623
LJ          -1.10842        -6.04024        -5.28753
LJ           1.72338        -1.32542         5.26449
LJ           5.03004         2.14604        -4.16801
LJ         -0.909107         4.43053          2.2626
LJ          0.875739        -5.16633       -0.767187
LJ             3.702        -2.27247         1.05179
LJ          -2.57891        -2.67525        -6.32947
LJ           4.70593        0.978054          2.5767
LJ           1.60855         1.28514         -6.4592
LJ          0.205736         3.57834        -3.67211
LJ           3.94169        -1.03842          4.9644
LJ          -1.94609         4.86526        -2.07197
LJ           4.07206         1.95923         0.34773
LJ           6.08939        -4.68089         -1.9658
LJ           5.74168        -6.05863         5.72876
LJ          -6.44167         3.56674         3.90808
LJ          -2.32989         4.19145          3.6119
LJ           1.13774        -5.29497       -0.629499
LJ          -6.13684         4.13848        -1.05905
LJ          -1.75075         5.99899        -2.28266
LJ           5.63014         3.33106        -2.70672
LJ           1.89224         4.63846        -1.60081
LJ           2.17905        -6.20801        0.877187
LJ           4.68407         1.41223         -5.3249
LJ         0.0812453        -4.30811      0.00199773
LJ          -6.36047         5.42006        -4.38567
LJ           5.63536        -5.40948         2.17033
LJ          0.928422         -4.9478         4.18316
LJ          -2.89365         4.58179         -3.2046
LJ          -2.62187        -3.52747          1.6598
LJ         -0.131626         4.06661         1.28637
LJ           4.87319         3.88911        -6.27614
LJ          -1.75064         2.92948        -5.43568
LJ          -1.80083        0.398053        0.739471
LJ          -1.60789        0.585939        -6.12424
LJ          -1.49999        -4.89181         2.45045
LJ          -6.30569        0.157937         1.15485
LJ           1.31952         1.70239         5.09161
LJ          0.131695        -3.70091        -6.13419
LJ          -4.28165        -1.06411         4.74361
LJ         -0.972937         5.64363         5.59843
LJ          -2.16334         0.19268         3.06409
LJ          -3.40614         3.57018        0.964862
LJ         0.0797342        -2.42898        -1.33419
LJ           2.61441       -0.517573        -3.13754
LJ           4.63921          1.4272        -3.80216
LJ           -6.3733         1.94789         6.03227
LJ          -5.43468         5.30543        -1.07997
LJ           1.33012        -2.92785       -0.519596
LJ          -2.62688         5.55788        -3.19574
LJ          -2.94084         4.45603         6.30315
LJ           5.35289        -4.28918        -5.30582
LJ          -5.56695        -1.78132        -2.43531
