108
#Comment!
LJ          -3.95409       -0.833755        0.790684
LJ          0.482521        -3.65551        -1.18071
LJ          -2.82066         3.43582        0.499953
LJ          -6.33884        -4.02967         3.28161
LJ          -1.24397        0.240293        0.702197
LJ          -4.95791        -2.04006         6.26478
LJ         -0.154046        0.352372         5.66517
LJ         -0.853541        -6.44383         4.97725
LJ          -3.38683        -2.16243        -5.03734
LJ         -0.747422          2.5585         6.09673
LJ          -4.35784       -0.214656        -1.45258
LJ           4.48787       -0.210234         3.87816
LJ           1.85634        -4.79109         5.17252
LJ           3.96955         2.64375         4.60875
LJ          -2.98584         2.47419         1.72458
LJ          -2.52861        -2.24006        -5.37349
LJ           5.77908        -2.41602         5.26844
LJ           5.39052         2.49616         5.71954
LJ          -5.93044         4.52839       -0.764258
LJ          0.571812        0.440938        -3.60825
LJ          -4.09406         3.67617        -2.11613
LJ           -2.4198        -2.54123        -1.16646
LJ         -0.810132         -6.0434          3.8733
LJ        -0.0950731         1.16566        -4.67416
LJ          -3.33408         3.77003        -5.36265
LJ           -4.5011         4.10673         5.65299
LJ          -3.53357         5.26091        -5.97284
LJ          -5.45777         2.43958        -1.66888
LJ          -3.67029        -2.41269         3.06219
LJ           -2.3459         6.38038        -5.77465
LJ           3.30394         1.26084        -2.09555
LJ           4.89917         1.38957        -4.02799
LJ           5.87453          3.9783        -1.32903
LJ            6.1429        -2.05756         3.07095
LJ           3.24724        0.464585         2.17658
LJ          -5.46064         6.01378          3.0122
LJ          -5.62366        -3.58606         5.52057
LJ          -1.11347         2.85596        -4.21058
LJ           1.95026        0.909106        0.217149
LJ           2.94715        -2.21098         1.79144
LJ          -4.07774        -4.11505         -1.4642
LJ          -6.09791         2.79253        -1.50349
LJ          -5.19223        -5.82262         3.58596
LJ          -4.18244         3.56643         3.33737
LJ          -4.51883         3.09581         6.35783
LJ          -5.37896       -0.164698        -1.86997
LJ         -0.253565        -1.60163         3.54318
LJ           6.29797        -3.80811         4.23167
LJ           1.60146        -6.44738         6.42166
LJ          -1.96439         4.15463          -2.784
LJ           2.27513        -4.97352         5.10237
LJ           4.36211         -4.3087      0.00313487
LJ          -3.30199         -4.6917        -5.33564
LJ          -1.14433         -1.3249        -6.29682
LJ          0.122046         2.00292        -2.56954
LJ          -5.66482         5.55337         3.30473
LJ          -2.86919        -2.15379       -0.823365
LJ         -0.452442         6.11804         3.70755
LJ          -2.13928         4.46741        -6.00234
LJ           -2.4476       -0.654504        0.588594
LJ           2.02969        -3.09367        -6.09101
LJ          -4.94432         1.40482         -5.7662
LJ          -4.19753       -0.785451        -1.71371
LJ           2.03822       -0.171763        -3.88278
LJ           3.97413        -5.23658        -4.24077
LJ          -4.78237       -0.634157         1.57137
LJ          -3.72822        -1.53947        -5.46633
LJ           4.14066        -1.51969        -3.34416
LJ          -0.55929        0.760368         6.04406
LJ           3.37598         4.54341        -4.61009
LJ           3.06793         4.45485         4.78639
LJ         -0.967703        0.532772         1.67471
LJ          0.257426         1.91299         3.36263
LJ          -5.32536        -4.71452        -2.89784
LJ          0.441975         2.36725        -3.16205
LJ          -1.97204         1.81161         2.39764
LJ            3.1048         3.96347         6.02971
LJ          -1.42542         4.68591         4.37078
LJ          -4.10165        -4.28587        -2.82206
LJ           2.90835         -5.9014         3.18445
LJ           6.12977        -5.65937        -2.00469
LJ           5.89713         3.63329         5.22281
LJ          -3.70727          2.1134        -5.39001
LJ           1.18624         2.01147         6.35155
LJ           4.16587        -2.78942         3.88508
LJ           1.55328         1.41816         4.59774
LJ          -1.48273         5.56723         6.14909
LJ          -4.23919        -2.18575         5.93199
LJ          -5.81703        -5.60294         4.24486
LJ           2.36967        -5.53386        -4.00845
LJ          -2.36125         2.78115        -2.02371
LJ           5.67855        -4.83263        -5.79545
LJ          0.529402       -0.695724         4.33091
LJ            3.2741        -2.21209         3.37593
LJ          -4.22458       -0.807885        -2.87859
LJ           4.02487         5.96034         2.64603
LJ         -0.298696        -5.35198        -3.09604
LJ          -2.44923        -2.32918        -4.10962
LJ           2.12676        -1.53216        -4.03839
LJ         -0.369519         5.90489        0.834967
LJ           2.00074         2.32878       -0.407562
LJ            3.2164       -0.671834       -0.992386
LJ           1.30927         4.76765         6.34154
LJ          -5.77877        -3.78659        -6.08117
LJ          -4.98945         2.76745         4.11995
LJ          -3.41897        -3.66325         4.71345
LJ           5.25655        -5.79041         3.21302
LJ           5.90696         2.62669         4.75363
