108
#Comment!
LJ          -2.82264         1.01302         4.96961
LJ          -2.41105        -1.88199        -3.80341
LJ          -1.72634        -5.53073         2.82571
LJ           -3.1915        -3.11796        -5.93419
LJ          -4.16747         4.49949        -5.78153
LJ          -3.20909         3.83982         4.07267
LJ          -3.68223        0.819594         3.49366
LJ           5.98904         3.42611        0.851005
LJ         -0.741098        0.709227         -4.3948
LJ           1.14099        -3.09665        -3.18318
LJ          -4.48516          3.4396        -5.39926
LJ          -1.60847        -3.41861         5.68619
LJ          -4.71615        0.405545        -4.73039
LJ          -5.32654        -2.43197         5.23841
LJ           3.61555         -1.3376         6.30993
LJ          -3.64004         3.70737        -4.69774
LJ          -3.22919         3.00179        -5.44843
LJ         -0.691795        0.368475         2.90465
LJ           1.94674       -0.449172         2.39789
LJ          -3.46147         6.00945         -6.3291
LJ          -4.99758         3.76985        -3.40771
LJ         -0.768055        -1.36818         3.84538
LJ            1.6168         3.72028         -3.9862
LJ           2.79173         5.10556        -1.66272
LJ          0.249498        -5.70951        -4.34673
LJ          0.219021         5.39904       -0.257988
LJ          -5.41167         3.87264         3.31187
LJ          -3.91432        -4.13373        -2.14449
LJ           4.75069       -0.347035         2.38942
LJ          -4.34795         4.68511         4.32321
LJ          -5.76387        -2.96175         3.27558
LJ           4.90823         3.02195          2.2368
LJ          -5.60469         5.95421         1.78372
LJ          -4.15899         6.02297      -0.0328881
LJ          -3.57046       -0.666273         2.56826
LJ           2.26282         2.00447         -4.1706
LJ          -5.60893         2.53794         -4.9318
LJ          -1.93474        -6.19456         4.21179
LJ          -3.04699        -3.81481          5.8534
LJ           2.86162        -2.23857        0.853339
LJ           5.06124        -1.96504         3.15208
LJ         -0.696346         3.95473         3.74378
LJ           3.92319        0.272199         5.67885
LJ          0.462834        -4.45667         4.90157
LJ         -0.402472         4.08128        -1.77839
LJ          -4.56199        -0.97647         1.77724
LJ           3.66016         2.92373         3.32316
LJ          -6.45141         2.89075        0.397591
LJ          -2.66267         4.90646         0.96626
LJ         -0.786293          -1.009          2.4477
LJ          -3.74276          3.6918         4.59134
LJ           5.83216        -2.36536       -0.262425
LJ           6.12948         4.26125         5.54763
LJ           1.42614        -4.45451       -0.394101
LJ           2.10898        -5.93934         1.58422
LJ           -4.2637        0.433872        -3.91592
LJ          -2.39669         2.67252         4.13257
LJ           3.23495         2.24283       -0.458899
LJ         -0.990228        -2.43798         5.78784
LJ           6.01359         1.43148        -4.28798
LJ           3.36907         6.38425         5.13817
LJ          -2.74817         2.78752        -5.73532
LJ           -5.7021        -3.82258         2.84919
LJ          -5.13864         1.48737        -2.51775
LJ          -3.78015        -5.17442       -0.323825
LJ          -1.29151        -2.73653           3.624
LJ           -6.0497        -2.44041        0.554951
LJ           2.16803        -5.83404        -4.49001
LJ         -0.588475         1.66076         2.32331
LJ           5.33059        -6.14621         6.39756
LJ           1.81861         1.24189         3.65151
LJ          -4.82218        -1.37069        -4.11074
LJ          -3.00387        -4.20187         6.01515
LJ           1.06349         3.02858        -6.08832
LJ         -0.412268        -4.67367        -5.47982
LJ             2.423         2.01877         2.74479
LJ          -5.56163       -0.995897         6.07974
LJ          -2.38713        -4.21347        -1.03412
LJ         -0.164103        -1.95186        -3.02801
LJ           3.36562         5.56249         2.10745
LJ         0.0343592       -0.921118         3.46443
LJ           5.54811        -1.85611         5.15833
LJ          -4.71968         1.92997         1.35861
LJ          -4.49349        -1.57794         4.63878
LJ           1.95713         4.50853          1.8535
LJ          -5.10149         6.10456        0.162225
LJ           4.46872        -2.92959         3.79066
LJ           3.64518        -1.55408         5.04038
LJ          -4.71797        -2.70032          1.7632
LJ           6.37938         2.90818          5.6832
LJ           6.37101         2.97791        -1.16415
LJ            5.4928         5.95461        -3.56361
LJ          -5.62301        -5.86392         2.60167
LJ           4.81917          -2.482       0.0762423
LJ           1.35561        -2.73938        -3.10895
LJ         -0.611994         3.82969         -4.2547
LJ         -0.140478         4.05868       -0.357683
LJ           2.78726        -2.77333        -6.03421
LJ          -4.84627         6.31684         3.44189
LJ          -5.02932        -1.46217        -1.62618
LJ           6.03104        -3.92679       -0.930744
LJ          -3.99234        -2.35134       -0.732019
LJ           4.12887         1.06852        -1.92561
LJ           5.87495        -3.64133         1.90875
LJ           0.85772         1.04816        -4.04937
LJ          0.469441         5.88418        -5.95976
LJ          -4.49631        -5.59694        0.468884
LJ            2.4578         5.17593        -4.79575
