108
#Comment!
LJ           6.16326         4.36987         0.79309
LJ          -2.87602         1.51414         4.92134
LJ         -0.860867        -2.37903        -0.90376
LJ          -4.28633         3.94514        0.350059
LJ           4.32243        -2.46654        -1.23523
LJ          -6.26184        -5.06042        -4.56111
LJ          0.744781        -2.13738         2.46821
LJ          -3.91452        -6.22938        -5.44556
LJ           4.35738         -4.7205          2.5771
LJ          -5.30023         4.98989        0.615785
LJ           3.01906        -5.45362       -0.577669
LJ          -1.90851        -5.57439       -0.883726
LJ             1.481       -0.413978         1.81545
LJ          -3.70054        -3.37936         -5.9073
LJ          -1.52662          -1.148         -1.6266
LJ          -4.60892         3.67806         1.94721
LJ           4.37696        -3.21558       -0.223651
LJ           4.58152        -2.19887        0.437154
LJ           5.43909         4.74175          4.9795
LJ          -6.14522         2.73091        0.478213
LJ           3.96142        0.632696        -1.27478
LJ          -5.35427        -6.12037        -4.76965
LJ          -5.14772        0.153189         2.66774
LJ           2.28819        0.689229         2.84731
LJ          -1.79853       -0.951982        -5.31926
LJ          0.827699        -5.66079          3.1296
LJ           -2.3739        -5.24482        -4.13537
LJ           6.25186       -0.343825         -4.2782
LJ          -4.03927         5.05487         -4.2902
LJ          -3.38782         1.16016         2.37007
LJ          0.531324        -2.64149         4.96186
LJ          0.905745         3.43683        -1.14079
LJ           2.52603        -6.44865         2.53564
LJ          -5.66235         5.31158        -4.29995
LJ           5.80632         1.39177        -4.85511
LJ          -5.28721        -4.68328       -0.448484
LJ          0.792274        0.401593        -6.26037
LJ           0.14058        -4.81446         1.03071
LJ          -5.62315        0.915691        -4.07764
LJ          -4.42727       -0.833204        -4.45844
LJ         -0.028143        -5.61125         2.70562
LJ          0.927992        -1.56261        -2.54335
LJ            1.7254         3.92601        -3.63745
LJ          -4.32027        -0.54781       -0.780167
LJ           4.47133         1.27562         1.62787
LJ          -4.69293         1.62334        0.720188
LJ          0.708731          1.3338         1.76397
LJ          -5.81715         3.73783         3.40356
LJ          -4.31182         1.02548        -3.50339
LJ           5.09519           2.725         1.26306
LJ           5.06759        -5.85759         1.49221
LJ          0.895413        -2.10978         5.84626
LJ          -6.09238        -4.36379         -1.3357
LJ          -5.31363         4.76311         6.20932
LJ           3.80296         1.49492         4.69688
LJ          -1.24896         1.93482         6.43261
LJ           3.32317        0.770562        -3.88107
LJ           1.69253        -6.27446        0.487036
LJ           4.18134         4.11729        0.108811
LJ          -1.69753         2.24431        -4.65768
LJ           3.61196        -4.54109        -2.29193
LJ          -4.92911        0.410096       -0.501617
LJ          -3.61426        -2.76417        -1.66791
LJ           6.18789        -5.88396        -1.53934
LJ           0.82364         3.38525        -4.32187
LJ            1.1918         2.19277         5.72413
LJ           5.47963         2.60122       -0.916758
LJ          -1.83226        0.961694        -3.07948
LJ           2.32847        -4.30688      -0.0865769
LJ          0.982163         3.40942         2.87509
LJ          -3.09225         5.92649         4.42177
LJ           2.44858         2.50855       0.0246323
LJ          0.628701         -3.6501         -2.1839
LJ          -1.95929        -3.05819        -4.82419
LJ           1.71677        -1.14456         6.44192
LJ           5.65164        -5.35131         4.49846
LJ           4.95395        0.514255         -4.2262
LJ           4.76321         5.67518        -3.52923
LJ          0.856764       0.0634928        0.745387
LJ            5.4157         6.26298         2.45417
LJ          -2.31072         3.36117         6.39328
LJ          -6.12562         4.84889        -2.94492
LJ           4.40444        -3.85773       -0.573028
LJ           4.43947         1.49129       -0.248728
LJ           1.15741         5.10058        -2.44544
LJ          0.598238         -4.9037        -1.71816
LJ          -3.16362        -3.32082         3.59933
LJ          -4.76953         4.90397         -2.3482
LJ           3.35794         1.72332         6.26052
LJ           3.20582         2.76302       -0.705329
LJ          -2.42968        -2.58673         3.54843
LJ           5.27595         -4.2201         3.92132
LJ          -1.87642        -6.00741        0.343031
LJ          -4.01971        -2.14371         -4.8258
LJ          -2.83792        -5.71596         -4.5607
LJ          -1.55281        -3.57053        -3.64385
LJ          0.385085         1.61504        -4.41541
LJ           3.62441        -3.53079        -3.88403
LJ        -0.0723022        -0.77242       -0.990309
LJ           5.32209        -3.03279        -2.75544
LJ            2.9858         3.34435        -4.46189
LJ           4.60973        -2.96871        -4.08569
LJ            1.5315         -2.9984        -5.27009
LJ          -5.91966         2.94125         1.23972
LJ          -4.63412        -5.76753         3.61609
LJ           2.73724         2.10801       -0.971766
LJ           -5.5158        -2.11299        -3.82906
LJ          -2.26126         6.08634         6.01194
