108
#Comment!
LJ          -3.92608         -4.7069        -6.19585
LJ           1.36421         5.60388        -4.79287
LJ         -0.617748         6.35322        -4.87734
LJ          -6.38862         -2.2109        -1.61481
LJ           3.32708          -2.315        -2.65313
LJ           2.79799         6.11588         2.49991
LJ          -4.59062         4.52817        -3.13884
LJ           3.87934          3.4365        -2.38932
LJ          -2.45493        -1.38866        -1.90228
LJ           1.14181       -0.692823         -5.3912
LJ           -4.5622         5.13296         5.99083
LJ           3.25274        -3.44746         5.47284
LJ           5.46517         3.12166        -6.33927
LJ          -2.95645        -5.71874        -1.00059
LJ          -5.33989        -5.55615         3.22574
LJ         0.0730885         6.43056        -1.14398
LJ          0.276585         -6.0315         6.10519
LJ          -5.87324         4.16434         1.79616
LJ          0.195297         4.48478        -5.34436
LJ         -0.528721        -6.19041        -1.69199
LJ          -4.53859        -5.50034        -1.93338
LJ         -0.928464      -0.0826772         3.32438
LJ          0.365861       -0.727299         5.31973
LJ           5.24677         2.65842        -1.39357
LJ          -3.52443        -3.66866         6.11666
LJ           2.01745         4.96741         5.50334
LJ           4.96559         2.87144        -4.45468
LJ          -2.01971        -5.30811        0.613406
LJ        -0.0323534         6.17818         6.20154
LJ           2.70801         2.25376         4.71167
LJ         -0.492688        -3.34414         -3.7752
LJ          -5.42202        -6.00423           4.123
LJ          -1.66358        -1.22908        -1.82153
LJ           3.20516          3.6748         1.86333
LJ           5.89283         -1.6491       -0.308733
LJ          -3.36706         -2.6177        -5.99632
LJ           6.01562         5.88185         1.56612
LJ         0.0916148        -5.65821        -4.25449
LJ           4.92321         3.21009        -3.56269
LJ          -1.88323        -3.92412        0.333528
LJ          -1.77776        -5.35816        -3.32024
LJ          0.140975         3.64298        -4.21525
LJ          -5.41085         2.45043        -1.89861
LJ          -3.88158        -5.30265        0.387837
LJ          -4.96107        -5.06406        -6.31138
LJ           3.07237         4.95782         1.12222
LJ           1.10561         3.99233         6.02138
LJ          -4.09565         5.24513        -5.27088
LJ           5.82037        -1.82433         -5.7256
LJ         -0.961036          1.1492         -5.0365
LJ          -6.27472        -6.08162        -2.90138
LJ          -4.24449        -4.40125        -4.10651
LJ         -0.611902         1.05349       -0.440696
LJ            -6.424        -1.72132        0.229044
LJ          -2.08718         -4.2531         3.39765
LJ          -4.78686         3.51094        -2.59829
LJ          -2.41307       -0.314545        -2.21722
LJ           2.11684        -4.43642         1.45799
LJ          -1.34452         5.08555         2.70925
LJ          -2.65748       -0.149316        -4.95846
LJ          0.998216       0.0815509         5.96308
LJ           2.66158        -1.22311         2.61064
LJ           3.48931         1.12598         2.24981
LJ           1.63335         5.22601          1.4651
LJ          -6.30141        0.385091        -2.74627
LJ           2.86724        -4.21962        -1.91922
LJ           3.75505         2.00888        -1.56088
LJ          -4.24368       -0.789541         3.02639
LJ        -0.0432971        0.809591        -2.58736
LJ          -2.75543         2.02775        -3.90175
LJ         -0.698393        -5.42861        -4.48628
LJ           1.21552         -4.5274         6.24921
LJ         0.0336692        -1.48908        0.594048
LJ          -6.26192         4.05666        -1.53113
LJ          -3.50415          -3.717        -2.72668
LJ         0.0954451        -2.64415         -4.3137
LJ          -3.16771       -0.732206        0.462412
LJ           1.15566         2.20739         0.85117
LJ           2.71308         3.33103        -3.47727
LJ          -6.27996       -0.244486        -5.83324
LJ          -1.49035        -3.74748        0.109118
LJ            3.3766        -1.34469         5.68702
LJ           4.54281        -4.56334        -3.02051
LJ          -5.45216        0.553047         1.16981
LJ          -6.20919        -4.98355         3.61136
LJ           -4.1429        -6.24051         3.97754
LJ          -2.12183         2.06213        0.568892
LJ           1.82841        -3.82998        0.163828
LJ          -5.44383       -0.392417         3.53298
LJ           1.93914        -3.57378         5.46038
LJ           3.59855         5.24399        0.538351
LJ          -3.12538         2.68583         4.88301
LJ          -1.53535         -6.2331         5.97751
LJ           1.32676         2.68193         6.04542
LJ          0.106418          0.2132        -4.20881
LJ          -4.80371        -2.94934         3.82997
LJ          -1.51212       -0.130795        -2.29219
LJ           3.73776         2.49595          5.3189
LJ          -5.95633        -5.28529         5.95061
LJ           2.41938        0.376382         1.92236
LJ          -4.54722        -5.00336           3.653
LJ         -0.443979        -1.24467        -4.75467
LJ           0.33877         3.71692        -6.19294
LJ         -0.449953         5.11073        -3.55573
LJ          -1.48466        -1.26041         1.39143
LJ         -0.961349         2.64328       -0.436652
LJ           4.10659         1.03812        -5.92739
LJ          -5.20643         3.39952        -5.28391
