108
#Comment!
LJ           4.51185        -4.93739        -6.40097
LJ           1.83289         5.87402        0.522412
LJ           1.46392        0.687129         6.36126
LJ          -4.41776         2.57673          3.9654
LJ         -0.155172       -0.770442          4.9147
LJ           5.16721        -4.51873       -0.654059
LJ           5.43275         2.85274        0.815441
LJ          -5.83539         6.40002         5.05643
LJ           4.64959        0.362715        -4.55317
LJ          0.100957         3.04349        0.801349
LJ          0.147977        -5.53026        -3.34722
LJ           1.44212         1.68937          3.1679
LJ           5.91575         -3.7421        0.355519
LJ            4.2889        -3.12576        -4.74119
LJ           2.69534         6.19614         -2.5929
LJ          -4.71778        0.138403         4.23147
LJ           3.51565         2.71177         4.20563
LJ          0.769787        -1.27168          4.5294
LJ           1.42779        -1.02968          4.5019
LJ           2.97561         5.55371        -1.84036
LJ           1.23455        -3.60422        -2.08528
LJ          -2.19782         6.38941        -2.54873
LJ           1.85223        -1.63753         6.45336
LJ           3.95899         5.49759        0.255132
LJ           4.12373        0.202753         6.12217
LJ          -1.02009        -3.09629       -0.594827
LJ          -1.08189       -0.769023          4.5286
LJ          -5.20785       -0.892547        -2.84915
LJ          -5.50045        -1.15122        -4.04388
LJ           3.32026         2.23494         1.87021
LJ          -1.62671          2.9124          4.8928
LJ          -2.36974        -5.63815         5.14135
LJ           3.94545         4.12417         5.04042
LJ          -1.05336         -2.5936        -0.16269
LJ          -2.48708         1.09354        -1.63826
LJ          0.689903        -5.27129        -3.79154
LJ           1.92931         4.64239         -6.3735
LJ            2.2848         6.30649        -6.34331
LJ          -4.74461         4.99738         3.58111
LJ           1.46654         2.81866        -4.83079
LJ          -2.46486         3.30635        0.721602
LJ           3.33124         5.82538        -3.50797
LJ          -2.71122        -5.36632        0.366531
LJ           6.44346        0.298243        0.622262
LJ             -3.48         2.25825         3.80925
LJ           2.84676         3.44055         -2.6209
LJ          -5.61978          1.0368         1.43519
LJ           3.78552        -4.69341         4.28924
LJ           4.35942         1.44777          1.9019
LJ         -0.814665         1.07713        -4.74744
LJ          0.816728        -1.36467         1.37144
LJ         -0.406863         2.77741        -6.20084
LJ           1.85017        -1.04897       -0.527623
LJ           2.45033         4.79201         2.80213
LJ           4.05977        -3.89429        -3.74782
LJ          -5.53791         2.41406         6.33304
LJ          0.766678        -6.32131        -4.55848
LJ           4.85148        -5.71822        -2.88725
LJ          -4.93175         3.51145        -5.93108
LJ          -3.51156         -5.8874         5.58733
LJ          -4.41257        -5.14355         3.11021
LJ           3.75861        -5.08559        -2.58884
LJ          -4.88555         2.50172        -6.42889
LJ          -1.35395         4.41932       -0.157117
LJ           3.20394       -0.454318        -4.10207
LJ          -3.86912       -0.737366        -1.76512
LJ           2.30477        -5.42758        -5.38682
LJ            4.6049        -1.28598        -3.39203
LJ          -6.01457         6.39313         1.49846
LJ         -0.314154         -1.0164        -5.13257
LJ           4.07158        -2.08982         6.18571
LJ          -4.62179         4.48564        -4.75644
LJ          -2.84764       -0.893549        -5.63107
LJ           -1.2731          6.0667        -5.73017
LJ           5.65129         6.04009        -5.14422
LJ           5.52999        -2.11897        -5.21768
LJ           4.75397        -1.77284      -0.0924832
LJ           -4.3691         1.77591        -3.98017
LJ           5.13981         5.30244        -4.14485
LJ           5.79664         4.44185         4.46148
LJ           -5.9927         5.36978       -0.143428
LJ           4.86505         4.11378        0.241353
LJ          -2.60891        -1.26829        -6.26872
LJ          -5.08017        -5.14143         -4.2362
LJ           2.78443         5.96102         4.02087
LJ           -5.3427         5.21888         -6.4004
LJ           5.20285         5.44366        -3.42788
LJ          -3.39028        -6.09998         3.97509
LJ          0.177958        -4.11438         2.73725
LJ           5.74208        -5.51922         6.21562
LJ            4.4318        -4.88287         5.23017
LJ          -5.85394         5.95903        -2.11812
LJ           2.44733         1.66119         3.75201
LJ          0.485518        -2.08204         -2.6984
LJ          -2.80129        -4.03929        -5.88183
LJ          -4.76763        -1.50723       -0.898897
LJ           5.57437        -5.43251         3.58629
LJ           1.78688        -4.32311         5.75615
LJ         -0.261448         2.20915         4.81997
LJ           -4.0537         3.97132         3.41202
LJ          -4.76206         4.57242         1.83772
LJ          0.711928       -0.799074        -2.24355
LJ         -0.642017        -2.41569        -2.45921
LJ          -2.65952        -6.16293        -4.90285
LJ           1.48989        0.216763        0.983628
LJ          -3.66991        -6.13184         3.77931
LJ          -5.23405         4.22905        -1.54085
LJ          -1.96759         4.49365        -0.43307
