108
#Comment!
LJ           4.92051        -4.25841        0.987585
LJ          -4.48648       -0.690175        -1.88479
LJ           3.16538        -4.08473         6.36535
LJ          -2.49759        0.984331          3.6514
LJ          0.167898         3.98609          6.4587
LJ            6.4217         -1.6076        -3.50635
LJ           2.92524        -3.05549        -4.17181
LJ           1.94428         3.28306        -6.31403
LJ           4.92326        -6.00255        -4.31426
LJ          -3.24565        0.202176         3.98509
LJ         -0.841703         5.23745        -6.14619
LJ           1.18518        -1.21586         4.51675
LJ          -2.36458       -0.904264         5.82677
LJ           4.08132        -3.33565        -2.22728
LJ            2.1413         5.24454        -5.15199
LJ           0.56538        -1.40606        -4.21747
LJ           4.77163        -1.73854        0.527433
LJ           2.01117         5.37448          -1.253
LJ           1.64673        -1.13031        -4.69626
LJ           2.94668         3.46474         4.28434
LJ           2.29013         5.74584          5.7005
LJ           3.84579       0.0846915        -5.93769
LJ           6.30053        -5.84592        -4.07338
LJ            6.0049         3.28108       -0.244832
LJ           5.78777        -1.27317        -2.57026
LJ          -1.91967        -6.25733        -2.55875
LJ          -1.89565        0.159155        -3.12804
LJ            5.9173         4.37851         2.64022
LJ           6.37259        -5.48367         6.26145
LJ           2.08417        -2.98814         -1.9036
LJ           3.22149         2.62463         5.49243
LJ           1.48627        -5.63237        0.717733
LJ           2.74907          5.3546        -1.57407
LJ           3.49125       -0.824822        -1.47318
LJ            1.2488        -3.77219        -4.95221
LJ           4.51338         5.99777        -1.30868
LJ          -5.68706        0.264701        -5.39968
LJ           4.92406         5.67572         2.67657
LJ          -2.66956         3.80126         3.99696
LJ           1.00325        -5.12209         6.23727
LJ           5.94555         5.50544         5.03739
LJ          -2.90161        0.230969         5.95227
LJ           -3.1682         5.66613          5.0531
LJ         -0.604008          0.6798         3.42554
LJ          -4.64885        -5.59366        -2.45872
LJ           1.00446          1.6392        -4.38693
LJ          -2.93333        -5.28756         5.25828
LJ           1.58164        -4.51521         2.50369
LJ          -3.93311        -4.15336        -3.50068
LJ          0.249197         2.69002        -6.19515
LJ          -2.92713        0.115026        -3.48939
LJ           3.57053         4.97693        -6.10137
LJ           -3.8519         1.95261        -2.49884
LJ           2.61396        0.216224       -0.838905
LJ         -0.507664         -3.2253         1.67034
LJ           1.98452        -1.74583        0.679712
LJ          -5.18872         4.42791        -5.63684
LJ          -3.25589        0.625522          1.6543
LJ          -5.16487         5.70196         5.42305
LJ          -1.08415           1.779        -4.00288
LJ          -6.05366        -4.50971         6.03521
LJ           1.88129        -2.78202        -5.32818
LJ          -1.92274         3.07226         -4.3338
LJ           5.21414         4.57003         4.12996
LJ          -2.58104         -5.6212        -4.64372
LJ        -0.0195963          6.1153        -6.26153
LJ          -4.22355        -5.10445         -1.4047
LJ           -6.0199         -1.3318         5.51566
LJ          0.257763         2.96192        -4.11687
LJ          -2.08508        -3.21694        -4.90572
LJ          0.538027        -6.17434        -4.09533
LJ           1.97921        -2.86157         2.80028
LJ           5.40975         2.10671        -4.39153
LJ           5.54299        -2.57673        -1.31168
LJ           4.99687         5.40176         2.53855
LJ          -3.91286        -5.02881       -0.547056
LJ            5.4073        0.854782         4.60403
LJ           4.15137        -5.11577        -1.62151
LJ          -2.17352         3.11959         1.46113
LJ           3.59894         1.86165          2.0033
LJ           4.12311        -2.83671         3.50447
LJ          -3.96263        -5.91223         5.90248
LJ           2.23083        -5.03719         5.66095
LJ          -2.45734        -2.48887         5.99966
LJ           3.67379        -5.03834        -2.04429
LJ           3.93805        0.446609         1.48282
LJ           4.06965         2.03524        -5.83005
LJ          -4.75923        0.427435         2.47433
LJ         -0.632834        -4.70453       0.0323332
LJ          0.214153       -0.916194        -4.33558
LJ          -3.12038        0.208536      -0.0203345
LJ           1.74472         -3.1057         3.54193
LJ           2.57517         1.51707        -4.43414
LJ          -1.26606         3.18619         -3.2065
LJ           1.53587         4.47159         1.71996
LJ           2.80424         5.89436         4.96143
LJ          -4.35246       -0.182678         3.36878
LJ          0.287756         4.07925         4.23602
LJ          -1.80005      -0.0557359          2.9848
LJ          -2.28983         3.06168         4.93395
LJ          -1.55663        -6.06745        -2.15871
LJ         -0.510973          5.8875         3.05687
LJ          -4.90312      -0.0772367         5.59179
LJ          -2.37299         5.22309         1.76555
LJ           1.55055         4.22162        -5.73331
LJ          -6.13559        0.077607         -1.1206
LJ          -2.53559        -3.31307         3.36655
LJ           1.37681        -2.76946         1.39218
