108
#Comment!
LJ           -5.9852        -1.02909        -3.24269
LJ           4.44755        -1.87003        -4.83055
LJ           6.00874         3.38864         5.73719
LJ          -0.55231        -5.30207        0.791207
LJ          -5.99847        -6.34859         5.26096
LJ           -1.4818        -1.55974         1.81537
LJ           1.03941         3.21578          2.1159
LJ           4.85523        -5.29481        -4.59386
LJ           4.67687         3.76505       0.0972991
LJ          -4.53577         5.34602        -2.96876
LJ           4.34638        -5.74075        -2.99406
LJ           3.51258         4.30744           4.415
LJ          0.679333        -3.17802         6.20465
LJ          -4.61509        -3.95011         2.09329
LJ          -1.69136        -5.86599         2.61871
LJ          -4.02056        0.858415        0.216614
LJ          -5.98836        -3.29425         3.55295
LJ          0.724444         4.93568        -3.18034
LJ          -3.23891         6.03359        -5.60756
LJ          -4.12606          6.2385         3.88185
LJ          -3.38823        -1.62795        -2.08741
LJ            3.2987         3.45211        0.924293
LJ          -1.96768        -3.14563         2.75589
LJ          -4.91022        0.485504         2.33683
LJ         -0.166079        0.673344        -4.24757
LJ           1.89274       -0.867098        -0.33128
LJ           4.88384        -3.44879        -5.96692
LJ          -5.19045       -0.267594        -1.40242
LJ           4.64208       -0.794737         1.08571
LJ           6.02161         1.72634        -1.10949
LJ          -3.47328         0.73477         2.74975
LJ           2.80116        -3.06384         5.51026
LJ           2.03638         1.63466        -4.29809
LJ           2.64806         4.41654       -0.129215
LJ         -0.652493         5.16356        -2.81477
LJ           2.11207        -2.41098         6.33182
LJ           6.45908        -3.05752        -4.59839
LJ           4.84338         4.91371        -3.88719
LJ          -2.66338         4.42359        0.414811
LJ           6.22138         2.14606        -2.96032
LJ           4.94223         2.99972        -2.91903
LJ           5.57568         2.90472         4.89487
LJ         0.0384473        -1.24276         2.55005
LJ           1.36933         1.41117         2.17259
LJ          -2.16884        -3.83074        -2.20435
LJ           -4.0268         1.26496         4.66443
LJ          -5.75854        -1.47488          -1.673
LJ          -2.91778        -2.13656         2.59176
LJ           3.63375           2.875         3.78505
LJ         -0.296841         3.73642        -6.08757
LJ           2.30101        0.352709         5.15501
LJ           4.81306        -5.58084        -1.44712
LJ         -0.634609        0.792361        -4.87973
LJ           5.64388         2.25629         4.00944
LJ           5.37852         5.41863        0.159485
LJ           4.73069         4.52026        -6.35477
LJ         -0.889746        0.668018           5.028
LJ           3.12403        0.390006        -4.87585
LJ          -3.39853       -0.662651       -0.271761
LJ          -2.16378         3.57256         1.48801
LJ           3.63932        -4.65295         3.40297
LJ           2.28216         4.52363         6.02682
LJ           2.77549         0.20666         3.40691
LJ          -2.59785         4.46119         2.19967
LJ            4.2339        -2.77406        -6.22289
LJ          -2.82917        0.158427       -0.993173
LJ            5.9764       -0.175313         2.59105
LJ           3.59437        -2.24453        0.660064
LJ           5.76589        -1.80821       -0.681052
LJ           -2.2453        0.691133         -5.6261
LJ         -0.894781        -4.29323         -6.0896
LJ           -1.5381        -1.95293         3.54833
LJ          -1.71826         3.38536       -0.361012
LJ           5.62101         3.27558        -4.91374
LJ           4.49447         4.34124         4.09215
LJ           -4.7788         4.37206         3.08125
LJ         -0.690375         3.17574        -4.44947
LJ          -2.03646        -1.07647        -5.58248
LJ           3.25524         -1.9579       -0.535925
LJ          -3.78501          4.1224         3.60481
LJ          -2.69259         5.25321        -1.07921
LJ           6.27556         1.02449       -0.888155
LJ          0.316579        -1.45137       -0.314996
LJ          -1.06715        -5.65823         1.89155
LJ          -3.49292          1.9287       -0.979407
LJ          -2.16713         -1.7916         5.76424
LJ          -4.40764        -2.51943         4.45378
LJ           6.01829       -0.125863          2.2339
LJ           2.68661      -0.0791334         -1.2906
LJ          -3.96249         5.79757         2.91543
LJ           4.03495         -2.4311          3.6095
LJ          -3.43439        -2.93427         5.18095
LJ          0.533401        -3.20466         -2.9001
LJ           1.25824        0.196416         5.53218
LJ          -5.08686         5.60977         1.32828
LJ          -5.14098        0.438514         1.13465
LJ           1.53734        -3.30938         1.66683
LJ         -0.149402         4.67821       -0.699647
LJ          -2.11835         0.10696         5.78562
LJ           5.47644        -2.11991        -5.63611
LJ          0.532318        0.590552        -4.59061
LJ          -6.09047         4.04999        -3.88111
LJ           4.84641         3.19936        0.162692
LJ          -4.47558        -5.75904         4.10131
LJ          -1.11812         1.58908         1.27354
LJ           4.85876        -2.12648         2.03767
LJ          -1.80516         1.47496         1.80366
LJ          -5.96565        -2.74588         3.98184
