108
#Comment!
LJ          -5.04818        -4.84022        -3.49459
LJ          -2.45049       -0.536002        -3.60256
LJ          -3.35838         -1.7432         -2.1559
LJ         -0.131572        -5.09563       -0.356747
LJ        -0.0650884        -3.00416        -3.03632
LJ           2.09807        -3.39861         -5.7006
LJ           -1.7814         -2.3906       -0.652589
LJ          -0.24574         -1.7374        -2.87906
LJ           4.09867        -2.66627         -4.4127
LJ          0.706068        -2.35243        -2.59516
LJ           1.97024        -4.88588         -4.4734
LJ           2.16044        -3.79648        -1.45092
LJ          -3.78643       -0.651358       -0.899891
LJ          -2.07683        0.404784         -3.7345
LJ          -2.37684         1.20492         -1.6217
LJ          -3.20934        -3.91572        -1.05311
LJ          0.472274       -0.791816        -2.83653
LJ           -0.2286        -1.33563        -3.79846
LJ         -0.611149       -0.866706        -1.55434
LJ           1.18994         -1.1907        -1.94154
LJ           1.38075         -1.8007        -3.43283
LJ            1.6616       -0.125435        -3.46326
LJ           2.45887        0.773298        -0.55508
LJ           4.26805       -0.580086       -0.539823
LJ          -3.87484        0.922307        -4.75939
LJ          -4.55412         1.31747        -3.46644
LJ          -3.21454         1.02846        -3.48912
LJ         -0.804133        0.655486         -3.4527
LJ          -3.75595         1.35103        -5.84601
LJ          -3.22118         1.70973        -4.91714
LJ          -2.28817         1.94046        -3.05548
LJ          0.245595        0.371161        -3.04032
LJ           1.37083       -0.110441        -1.58661
LJ          0.352369         1.83438        -3.75848
LJ         -0.391877         2.98118         -1.8719
LJ           2.50013          1.1989        -2.32726
LJ          -1.77974        -5.45607        0.858038
LJ          -1.04317        -2.78027        -1.78071
LJ          -3.02845        -5.51535        0.407895
LJ          -1.76569       -0.229331      -0.0225615
LJ          0.925942        -3.06034        -0.76372
LJ          -1.47628       -0.724114        -3.25513
LJ          -3.37211        -1.65294       0.0966654
LJ         -0.312836        -2.26919       -0.242658
LJ          0.289783        -1.58186        -1.45472
LJ           5.00233       -0.429347         0.51077
LJ           1.98772        -1.40085        -1.33462
LJ         -0.337785        -3.00594         1.13059
LJ          -4.02874        -1.08153        -2.61234
LJ          -2.19294        0.408548       -0.835521
LJ          -5.46704         1.38074        0.784481
LJ          -5.18356        -0.47432        0.701667
LJ           0.91528        -4.08194         -4.0224
LJ          -1.21807         2.07198       -0.854355
LJ          -1.14908        0.437839       -0.602261
LJ          0.241146         -1.2086         1.38229
LJ           6.11637         -2.1004        0.570146
LJ           3.44732        0.776591        -1.77953
LJ          -1.06209        -1.49968       -0.759648
LJ         -0.441746       -0.456093       -0.126276
LJ          -3.73702         3.04236         1.01241
LJ          -1.91324          2.7548        -2.26328
LJ          -6.18263         4.48643       -0.400606
LJ          -2.97735        -0.22466       -0.283221
LJ          -2.40902        0.581867        0.304605
LJ         0.0231725         3.53299       -0.456802
LJ          -1.19367         3.47587       -0.510928
LJ          0.567447         1.92232        0.183205
LJ          0.588766        0.130719       0.0815604
LJ          0.303517         4.81973        0.618198
LJ           0.40556        0.873849         1.62072
LJ           1.35798         3.90251       -0.398088
LJ          -1.68049        -1.58568        0.747937
LJ          -2.02738        -1.49016         1.77812
LJ          -2.76969        0.191372         3.49282
LJ          -3.15955        -4.07759        0.934566
LJ           1.66993        -4.82082         3.83222
LJ           -1.6226        -3.21162        0.887813
LJ          0.347066         -1.3292         3.87173
LJ          0.889405        -2.75151         1.45759
LJ          0.754648         -5.3767         1.98754
LJ           3.16918        -1.79715       -0.759036
LJ           1.62693        -2.89146        0.674667
LJ           1.72385        -3.92709         1.66746
LJ          -3.40612        -2.91893        0.309747
LJ          -4.18554        0.666193      -0.0605928
LJ          -1.49841         1.22395        0.802744
LJ          -2.68847        -0.94119        0.378575
LJ          -3.54012        0.192261        0.716474
LJ         -0.638289       -0.898297         2.58188
LJ          -2.08699        -1.26199         2.88338
LJ            2.3102        -1.11912          5.2784
LJ           1.00961        -1.68541       0.0652181
LJ            2.8504         1.76384       -0.849119
LJ           2.56335         2.18901          2.1686
LJ           1.64233       -0.167125       -0.399905
LJ           -3.3018         1.23791        0.539887
LJ          -2.41686         1.82422        0.468893
LJ          -1.48993       -0.308908           4.652
LJ          -1.63961         1.46913       -0.199393
LJ         -0.246205        0.155944        0.739033
LJ          0.812567         3.51959        0.570297
LJ         -0.224195         1.33494         3.30793
LJ         -0.308633        0.311053         3.01798
LJ           2.73747         1.36722        0.970557
LJ           2.72531        0.380901         1.64601
LJ           1.20799        0.612094         4.86591
LJ           3.36176        0.706195         3.11095
