108
#Comment!
LJ          -4.05852        -4.18574         3.57145
LJ           2.65866        0.990126         3.41299
LJ          -1.14121          3.7452        -4.17631
LJ          0.415545        0.203836         5.09575
LJ          0.465476       -0.992332         1.50553
LJ           1.36097       -0.880617        -5.55276
LJ          -1.38237         -5.4572        -2.85696
LJ           -2.8286        -5.37442         3.85893
LJ          -4.54994        -4.31517         -6.3676
LJ          -3.83513          4.1359        0.627901
LJ           1.09969         2.37251        0.250323
LJ           5.56193         4.30666        -4.12995
LJ           4.21666         2.59369        -1.32302
LJ           5.71197         2.35537        -5.47421
LJ           2.38813         2.36608        -5.17318
LJ          -5.40338        -2.39807         2.21403
LJ           4.06624         -1.2367       0.0954754
LJ           2.90624       -0.217104        -3.00274
LJ           2.62539         1.15719         3.78107
LJ         -0.889563         2.42808         4.50794
LJ          -1.13775         -6.3964        -4.78999
LJ          -3.19697        -6.02007         3.75562
LJ           3.55615        -3.21364          5.8016
LJ            1.0845        -4.43105        0.233372
LJ          0.639022        -2.18654          5.0798
LJ          -2.13894        -4.13608         1.63337
LJ          -6.28758         3.93713        -3.25855
LJ         0.0542165        -4.51702         2.47626
LJ          0.554461        -6.32017          4.8911
LJ         -0.797163        -5.31848         -6.0393
LJ          -0.74792         5.11031       -0.392325
LJ          -6.21711         3.10647         5.22955
LJ          -5.83846         -1.1914        -2.99669
LJ           3.76036         1.05083      -0.0430788
LJ          -4.43298        -6.18559          3.7045
LJ          -1.88778        -2.14368         3.87882
LJ           4.43113        -3.47482        -2.08023
LJ          -2.76158         -4.1525        -5.63797
LJ           4.20868        -4.88079         -1.6526
LJ           1.59366        -4.69137        -2.18442
LJ          -2.47433        -1.74896         2.98545
LJ           5.92314         5.84165        -5.07188
LJ           2.48728        -2.21985        -2.80606
LJ           6.38262        -4.33604        -6.33086
LJ          -4.61441        -2.50256        -0.88407
LJ          -6.39015         2.34365         3.95477
LJ           2.93109        0.674891       0.0598659
LJ          0.858434        -5.75233         2.63158
LJ           6.38833         5.10862        -1.77314
LJ           3.56372         6.14118        -4.76418
LJ           2.97135         5.28657        -3.12816
LJ            3.5207       -0.263227         1.26132
LJ           -5.1481         5.89779         1.81475
LJ           -4.2211        -1.90182         3.09002
LJ           4.33933        -3.17864        -5.34543
LJ          -0.27832        -2.05069        -5.31704
LJ          -5.15911       -0.196593         4.13005
LJ            5.9487         2.96907         -2.4591
LJ          0.477112         4.12994         5.51351
LJ          0.240306        0.314478          2.7528
LJ          -4.75212        -1.52394        0.256735
LJ           4.19417        -4.73016         4.51553
LJ           3.98382        0.683036          2.6459
LJ          -4.57605        -4.48522         1.08147
LJ          -1.49909        -4.82051         1.16052
LJ          -3.48621         -5.8538        -1.92065
LJ           1.97246        0.362909         4.17274
LJ            5.7455         5.45851       -0.505995
LJ           1.26348        -2.86415        -6.34453
LJ           -3.5861        -3.10468         3.84491
LJ           2.58597         1.15989         6.32307
LJ          -1.81711         1.03868        -5.95385
LJ          -5.75361         3.99663         3.51288
LJ          -6.04621        -4.93585         3.76681
LJ          -4.47491         4.82867        -4.53755
LJ             3.247         3.19269        -3.72533
LJ           2.34221        0.232414         -3.1556
LJ           3.62479         4.04176        -2.02028
LJ          -3.23247         6.00838       -0.340554
LJ          0.264388         6.03454         1.99609
LJ          -1.30078       -0.358739        0.752752
LJ          -4.78965         5.30127        -2.78318
LJ           5.85717         5.92086        0.452552
LJ         -0.168634        0.441397         1.90764
LJ          -1.17957         -1.4416         -5.9212
LJ           1.38742      -0.0188307         3.07953
LJ          -5.19293        0.814875         1.89427
LJ           3.58937        -5.27776        -4.47346
LJ          -5.59683        -4.86462         1.81175
LJ          -4.73387         3.73763        -4.77354
LJ           2.81594        -3.61405        -3.13989
LJ           2.28033          4.8236         4.07111
LJ           4.07429         4.90972         3.44679
LJ           3.55124       -0.783708         5.84682
LJ          -3.77788        -3.76387        -4.19874
LJ          -2.76818        -2.53235       -0.463824
LJ           3.95298         4.54881          4.4969
LJ           2.58297         4.47166         5.79386
LJ          -4.47683         3.67707          3.2725
LJ          -6.05417        -6.21789        -4.95026
LJ          -2.51935        -4.20025        -1.95903
LJ          -1.94982        0.886944         5.14496
LJ           1.26943        -3.50726         5.45859
LJ          -3.15925         1.19577        -3.29446
LJ           2.63878       -0.260345        -6.21101
LJ          -2.94767         0.75135         1.79931
LJ           5.84181         1.28021         3.28048
LJ          -1.29014        -1.97702        -2.57566
