108
#Comment!
LJ           1.95067        0.159993        -3.22231
LJ           4.88551        -1.07789       -0.254859
LJ           1.48528        -1.31522         1.53759
LJ           5.12755         4.50611         2.41238
LJ           -2.2192        -3.81013         4.23424
LJ           3.22399         6.19279        0.830275
LJ          -1.40259        -1.01337          5.2704
LJ             5.492         -1.8792        -3.02312
LJ           1.24045        -5.24777        0.858192
LJ          -4.93205       -0.303538        -5.43317
LJ          -5.95345        -0.89488        -6.13794
LJ          -4.08123        0.243685        -1.71831
LJ          0.440574         2.81294         -2.4077
LJ          -5.85234         2.25903         1.28619
LJ          -1.95423        0.535348        -5.57304
LJ         -0.289477         -4.8858        0.168104
LJ           1.66967        -5.45975         5.79069
LJ          -1.55258        0.986351        -4.04416
LJ          -4.49785        -2.10183         4.48944
LJ          -3.21824        0.127568        -5.12726
LJ          -2.27846        -0.42667         2.71787
LJ            4.0793         6.32751         1.34567
LJ          -5.19981        0.616091        -3.71947
LJ           1.30521        -5.65329         3.81972
LJ          -1.70926        -4.73091         1.99085
LJ           5.17871        -4.08429        -4.27273
LJ          -5.02452         3.17953        -3.05919
LJ          -5.87186        -2.54024        -4.11258
LJ             1.365        -3.45777       0.0699816
LJ           1.57817       -0.445294         6.22374
LJ           2.20895         3.56193        -3.34413
LJ           4.78553        -5.51591        -1.01768
LJ           5.98188        -2.05696         4.62863
LJ           3.77497        -1.31105       -0.474757
LJ           4.34556         5.36275        0.652134
LJ          0.280502       -0.735593         6.22927
LJ         0.0169061         5.72626         3.68894
LJ          -5.06057        0.192893         2.45243
LJ          -3.81394        -1.51126         6.40394
LJ            5.9953         4.62224       -0.572782
LJ           1.07618        -4.52818        -5.16869
LJ          -3.67692         6.22509         5.42136
LJ         -0.615376        -4.90973         -3.9129
LJ          -5.20539        0.506741         1.15053
LJ          -4.16532        -4.69138        -4.34839
LJ           5.31157         3.16509          0.8271
LJ          -5.99711        -2.52872          1.0842
LJ          -1.88735         1.63212         6.38748
LJ         -0.176966        0.293894         4.79466
LJ           5.74515        -3.00738        -3.53219
LJ         0.0262111        -4.32591       -0.753443
LJ          -1.35329        -4.37725        -1.41978
LJ         -0.594903         0.34267        -1.67204
LJ           3.29426         6.17876         -1.0451
LJ           4.40493         -5.3669        -3.53777
LJ           5.56583         4.56153         5.12786
LJ          0.489271         3.90079        -4.65006
LJ           -3.3703         6.04538       -0.949369
LJ          0.798139        -2.31819         1.24123
LJ            5.6994         3.24936       -0.559493
LJ           1.67068      -0.0381455         3.16583
LJ          -3.26701          4.5512         4.94673
LJ          -6.34314         4.47047         5.49448
LJ           3.78779          5.8105         2.61264
LJ           -6.1911        -4.51973         3.49728
LJ           3.53234        -4.53476        -4.01814
LJ           4.54239        -1.52995        -2.43476
LJ          0.528498         1.70926       -0.928472
LJ           5.81505        -1.23199        -2.09865
LJ         -0.777014         4.48013         4.40598
LJ          -3.79768       -0.194455         1.71469
LJ          -5.63861       -0.700182         5.74485
LJ           6.43436         -1.2448      -0.0670033
LJ           1.57006        -5.71026        -6.10367
LJ          -2.52783        -1.30903        -3.09763
LJ           2.98155         2.78192        -4.72162
LJ          -4.87457        -3.89912        -1.45046
LJ          -0.38204        -1.32287         5.23506
LJ          -2.53425        -6.14993         -5.0237
LJ         -0.210986        -2.92587        -6.03766
LJ          -1.63057        -2.28819        -2.06614
LJ           6.22218       -0.185816        -2.28117
LJ           3.16413         3.25934        -3.64744
LJ          -3.68017       -0.258505         3.83026
LJ          -2.58016         3.76307         4.72953
LJ          -3.87446       -0.436479       -0.980781
LJ           -3.0769        -1.15323         1.85054
LJ           5.19206        -0.07407         3.58297
LJ           3.75425      -0.0339606       -0.987274
LJ          -0.41196         3.46205        -2.65051
LJ          -4.72117         2.85478         5.34332
LJ           4.89463       -0.668602        -2.70362
LJ          0.967968         5.02098          5.2503
LJ           2.63725         2.00539         3.67683
LJ          -2.74304        -5.82848         -6.3523
LJ           5.34116       -0.301697        -1.53671
LJ           -1.5858       -0.210148         3.94814
LJ         -0.365805        -2.29036       -0.483865
LJ        -0.0607761         5.61601         4.93372
LJ           2.44136         3.30596       -0.438835
LJ          -3.05819         0.79544         2.95723
LJ           4.55725       -0.368264        0.900566
LJ           4.20628         1.23516         -1.2833
LJ          -3.58558       -0.743965        0.718167
LJ          -5.54825          4.4899        -0.14545
LJ           3.69681         2.03367         4.10217
LJ           1.17537        -5.79132        -1.37355
LJ           -6.0511        0.833469        -4.40935
