108
#Comment!
LJ          -2.50307         3.70333        -3.16249
LJ           2.64725         1.61269        -6.12039
LJ         -0.729805        -4.90165       -0.725201
LJ          -2.02653         4.53363       -0.552865
LJ          0.238959       -0.115241         6.24658
LJ            5.5427         6.13819        -1.85263
LJ           4.10402         5.82004         4.72582
LJ           3.83428        -2.28472         -4.3631
LJ          -3.96651         2.39722         6.41094
LJ           4.64804        -1.67739         1.45227
LJ          -1.26381        -5.74715          5.2519
LJ          -2.07432        -5.29097        -2.58897
LJ          0.757657        -1.60382         1.96461
LJ          -5.28686        -5.50547        -3.02364
LJ         0.0378231         4.15061        0.228742
LJ          -3.26727        -5.69818        -5.72989
LJ           5.78448         -4.4372         0.84907
LJ          -1.71536          -3.633         1.21437
LJ          -2.58539        0.789379        -6.34541
LJ          -3.08068         5.27805         3.88903
LJ           2.04699        -2.62032        -5.12399
LJ           5.56837         -2.8452         2.23146
LJ            2.2563       -0.587233         5.08591
LJ           -6.4158        -5.86326         6.16262
LJ          -1.71093         -5.2053        -2.40211
LJ          0.170777        -6.40462         1.31183
LJ           3.58738         1.37625        0.814373
LJ          -3.16485       -0.753211         3.67051
LJ         -0.395158        -3.23246        -1.51105
LJ           3.87027         -5.0258         3.93453
LJ          -1.99806         -3.9787         -6.1755
LJ           1.08676         1.57201        -2.14086
LJ           5.80572        -5.47538        -5.28917
LJ           3.05374         4.17378         3.50112
LJ          -5.18431         5.13731        -1.67856
LJ          -5.18425         2.64746        -3.41479
LJ          -3.64105       -0.755256         -5.4659
LJ           3.05968         1.79013         5.43192
LJ             4.784         4.81482        -1.38793
LJ           4.50514         5.11923         2.78667
LJ           5.36354         6.03321         2.72781
LJ          0.703979         2.57256        -2.81223
LJ          -3.98302         3.75619         2.40054
LJ           -4.5933          4.0765        -2.27597
LJ         -0.600261        -2.09321         5.96652
LJ          -2.76325       -0.452985         5.22291
LJ           2.20549        -6.33485        -5.08395
LJ           3.05659         3.76276        -1.87921
LJ          -0.94135        -3.22218       -0.439966
LJ          -3.65115        -1.22256         6.31294
LJ           1.06067         -6.2411        -3.77137
LJ          -5.46621         6.23581         4.93138
LJ          0.251851        -4.32803         1.37705
LJ           4.90199         2.66168         1.85729
LJ           2.24512        -4.88824        -5.95005
LJ          0.869515        -4.13689        -3.34448
LJ          -2.82357         6.01201         2.70953
LJ          -0.83356        -5.90824         4.64152
LJ           5.18483         -5.5021         4.86717
LJ          0.584608        -5.14252          5.9063
LJ           6.21341        -4.59706         4.43458
LJ          -2.67918        -5.10735        0.372104
LJ           2.40115       -0.548556          5.6496
LJ         -0.195332        -2.65923        -4.21661
LJ           2.32758         3.31667         3.86993
LJ           3.27949        0.940018         3.54144
LJ           5.52547        -4.08447         5.66198
LJ        -0.0891331         2.21112         -5.2277
LJ          -2.69342        -5.07267        0.828895
LJ           1.25682        -3.92347         4.79673
LJ           3.15631        -4.84281       0.0403033
LJ          -1.27162         3.72198        0.932556
LJ          -5.62169        -4.87198          3.4123
LJ          -2.12943        -6.27026       0.0130197
LJ          -3.94869        -1.15399        -3.99694
LJ           1.20006        -4.68444         -3.3764
LJ           5.09313        -1.90095       -0.716191
LJ           1.87678         6.27537         -1.4278
LJ        -0.0231503        -4.64641         3.00878
LJ         -0.289991         2.18346        0.742536
LJ          -2.52606        -4.54224        -3.04946
LJ          -3.59462        -4.25693       -0.277313
LJ            2.3038        -5.36589        -6.02134
LJ          -5.99372         6.23948         1.17284
LJ         -0.763302        -3.33593         2.33033
LJ          -2.81449         1.19371         -5.4467
LJ           4.28262         3.97002         4.70687
LJ         -0.150417         1.94743         3.51794
LJ           1.09827        -5.07276        0.599471
LJ           3.48806       -0.651858         1.85571
LJ          -2.90119         -1.5449         2.73446
LJ          -5.34887        -3.27256         -3.8203
LJ          -3.28427         4.22845        -4.15376
LJ          -2.72564          1.9004        -4.42067
LJ           4.34991        -4.37444        -5.18887
LJ        -0.0365255        -3.48262         5.75052
LJ           -5.7701        -6.35229         3.60307
LJ        -0.0659064        -0.41189        -6.42305
LJ           1.03823         3.71509          3.3305
LJ          -4.22323        0.802576         3.52991
LJ           3.92619        0.748343        -5.02571
LJ          -6.07731          -5.256        -1.11952
LJ           5.01556         1.97566        0.589055
LJ              3.54         6.43173        -0.37316
LJ          0.534402         1.32419        -3.19659
LJ          -3.60348         5.05084         5.65987
LJ          -2.28765         4.68188       0.0245819
LJ         0.0671119        -0.63343        -0.74451
