108
#Comment!
LJ          -1.16575        -6.28736         3.38541
LJ           2.01105         2.61263        -2.41358
LJ         -0.519676         3.01413         2.62408
LJ           2.00135         3.35681           1.997
LJ           5.82728       -0.381699        -2.66935
LJ          -6.03269         1.77162        -5.12338
LJ         -0.205689        -5.18665        0.130462
LJ           4.41037         5.36552         2.61213
LJ           4.67641        -3.05554        -2.06191
LJ          -2.13529        0.111839          2.0472
LJ           2.98031         4.58029        -5.04312
LJ           2.44775         1.08082        -2.24852
LJ           -5.3302         5.19498         -4.4794
LJ           2.08301         1.17821         3.43665
LJ           4.40876         5.80195         5.78284
LJ           4.22413         2.25136          5.2726
LJ            2.1766       -0.229384         4.59924
LJ          -1.27296        -4.62911        -5.51777
LJ          -1.54237         0.91834        -1.99347
LJ          0.178866        -1.58853        -1.26807
LJ           4.14161        -2.72747        -1.89336
LJ           3.98853        -5.49871        -0.51703
LJ          -4.16008          4.3809        -4.03816
LJ           2.89926        0.569689         4.63928
LJ         -0.235911          4.9425        -5.17343
LJ            1.1827        -2.06054         3.87715
LJ          -5.77336         -2.3137         1.06413
LJ           4.10468        -1.60801        -6.37264
LJ          -1.24426         1.29472         4.97846
LJ            4.4827      -0.0855192        -3.77066
LJ          0.899019         2.10236         1.07534
LJ          -6.40334         3.15549         6.40087
LJ          -3.69517         3.32537         2.54451
LJ           1.43518        -1.26507         6.06472
LJ          -1.98072        -5.51483        -5.65896
LJ            2.4514         1.79067        -2.88967
LJ          -3.11136        -6.15962          4.1203
LJ           5.11379      -0.0692261         1.48275
LJ          -3.84626        -2.84199         1.44621
LJ           4.82814        -6.36172       -0.898854
LJ          -4.99636         4.82495        -3.67433
LJ          -1.00715         1.63126        -2.43287
LJ           5.17196          2.1542        -4.04819
LJ           0.83739        -1.13854        -1.66196
LJ            1.3382         1.04404       -0.544993
LJ           5.97821        -3.55639        -2.11147
LJ         -0.825915         3.82711         4.86569
LJ          -2.24201        -1.94948         3.99324
LJ          -5.72228        -4.80981         5.02908
LJ          -5.29594        -2.75222        -3.79528
LJ           -1.5681        -3.13323         5.73255
LJ           4.07223          6.1939         6.37593
LJ         -0.330333       -0.642682        -3.82931
LJ           2.19679         4.34718       0.0558054
LJ           5.71346       -0.158235        -4.74413
LJ          0.243555        0.282819         6.12105
LJ          -3.98811         3.73813       -0.618082
LJ          -6.14757         2.88827         -2.8112
LJ           4.76178        -1.96069        -4.32291
LJ           4.91254        -5.31591         5.34443
LJ            3.1035         5.95397         6.22621
LJ           5.47825         2.79235         5.89776
LJ          0.556511        -4.41384         5.92519
LJ          -4.15125         4.85303         3.46216
LJ          -4.88753        -4.80116        -2.70228
LJ            2.5138         4.93339         4.05196
LJ          -5.53159         1.20038        -2.09345
LJ           2.63466        0.790095         3.92142
LJ          -4.28562       -0.118661        0.869681
LJ           5.69313      -0.0823214         4.93753
LJ          -1.65542         3.66927        -4.45051
LJ           3.81311        -3.84376        -2.96889
LJ           1.58875         5.36377        0.992761
LJ          -6.37712       -0.554144         2.26813
LJ           -3.5086         6.04281        -4.97942
LJ           -3.9612        -3.92635        -2.43946
LJ          -5.37403        -4.52069        -3.95349
LJ           3.96745         6.30407         3.63178
LJ           5.62865         4.93472         5.82427
LJ           1.66956         3.97219        -5.47267
LJ           6.42223         3.87984         4.52403
LJ           1.29443         5.50014           5.449
LJ           6.16404         5.70704         3.06642
LJ           3.98385         4.91137        -1.63114
LJ          -2.89319         5.21234         3.88129
LJ          0.694269        -3.68504         1.58505
LJ           4.84993        -2.64785        -5.30008
LJ          -2.12058        -6.21253        -3.10922
LJ          -1.63411         1.62342        -4.55619
LJ           4.89709         3.23963       -0.272857
LJ          -3.12795          2.7691         5.35651
LJ         -0.727753        -3.65349        -2.60323
LJ          -2.58397          2.2215         3.78684
LJ          -4.59924         6.37276         3.62781
LJ           5.38791         1.89552        -1.19304
LJ          -3.49582        -2.45065        -1.05263
LJ          0.146674        -4.03257         4.50837
LJ           5.54584         3.37718        -5.64416
LJ           2.90258          6.2967        -6.03078
LJ           5.78409        0.942196        -6.06313
LJ          -5.16136         4.14401         3.83282
LJ          -3.89574         5.85492         3.31236
LJ          -3.68649         3.73831        0.541162
LJ          -5.30985         -6.2449        -6.17826
LJ           4.63631         1.90066         5.34264
LJ          -4.29387         1.43899        -1.19142
LJ           -5.8515          3.3355        -5.35701
LJ           5.91786         5.74249         2.48016
