108
#Comment!
LJ           3.16888         4.19164         -4.4847
LJ          -5.03139        0.547377        -4.28761
LJ          -5.20403        -0.77942        0.349622
LJ           2.12139         6.23618         4.94581
LJ          0.432715        -1.32927        -3.51294
LJ           5.75068         5.20889         2.44442
LJ         -0.454836        -2.33918         1.14067
LJ          0.621751      -0.0788463        -3.62238
LJ          -4.95707        -3.91515        -6.44903
LJ          0.558171        -3.79026        -4.83063
LJ           2.43807         4.91157        -5.50222
LJ           5.76056        -5.87442         -1.5723
LJ          -6.32545        -1.12275       -0.394729
LJ          0.266028         5.05353        -4.49697
LJ         -0.404204          2.9701        -1.75331
LJ           -4.5349          3.6444         0.91481
LJ           2.79666        -1.39646        -4.23977
LJ         0.0105982        -1.63768        -6.44208
LJ          -2.68293       -0.776997        -2.05991
LJ           2.99225      -0.0482502       0.0503126
LJ         -0.323446        -3.19297        -3.95518
LJ           1.94018        -2.86823         5.76607
LJ           4.04593         2.19367         2.50173
LJ          -4.75381         1.46102         3.55468
LJ           6.04236        0.268816          5.8221
LJ          -4.59255        -1.17069         5.88969
LJ          -5.82349       -0.957052         6.35296
LJ          -2.39358         3.73155         5.92647
LJ            4.9071         2.00404         4.90723
LJ           4.50346         4.21004         2.22085
LJ         -0.105199         4.41232        -3.59151
LJ           2.06091         -2.8487        -5.65499
LJ            5.3028        0.756643        -6.29709
LJ         -0.927483         4.39986        -5.24621
LJ           3.19061        -3.39532        -6.02633
LJ           3.67672       -0.142402         -1.0548
LJ          -2.32973         5.18727         4.25588
LJ          0.344184        -1.50407        0.185784
LJ          -1.96633         2.97565         1.20841
LJ          -4.19527        0.262142       -0.769661
LJ           1.87713        -1.80548       -0.676399
LJ          -4.69146        -2.29589        -5.46045
LJ           -5.7089         5.32199        0.960114
LJ         -0.818372        -3.10589        0.506518
LJ          -0.15857        -2.35487       -0.215258
LJ          -5.14451         1.71071         2.34855
LJ           3.18167       -0.387111        -2.56783
LJ          -2.39907        -2.41065       -0.523241
LJ            5.9588        -2.97211        -4.36845
LJ          -6.44678      -0.0590742       -0.778252
LJ          -6.23956         1.38208         2.39727
LJ            2.7805         1.84596         4.77625
LJ            3.6802          1.8862         5.70875
LJ          -4.86573         2.24428       -0.262273
LJ          -1.34772         3.38271        -2.66855
LJ         -0.844808        -2.73799         5.67953
LJ          -1.67946       -0.803225        -4.54021
LJ           5.99765         1.34976        -3.42689
LJ          -3.73227         -4.4805         1.37853
LJ          -5.49276       -0.535595       -0.930015
LJ          -4.76803        -6.26828         5.34958
LJ          -1.90519         4.36305        -5.65604
LJ            3.8186        -4.13096        -1.72203
LJ          -4.47042         1.31297       -0.206703
LJ          -3.43841         3.00508        0.520555
LJ          0.924237         5.86023          3.0273
LJ          -3.36344        -3.30866        -1.15664
LJ           2.00344          1.0858         1.19926
LJ            2.9389         -2.2312       -0.438184
LJ           2.13919         4.13063         2.16511
LJ          -1.73262         1.11474         2.13681
LJ           1.50942        -2.95506        0.453216
LJ          -1.56315        -2.25862        0.289715
LJ          -1.52384        -1.31627         1.07733
LJ          -4.56673         3.23307         4.29985
LJ          -5.00306         6.11146        0.554711
LJ          -4.79928         -6.3236         6.35564
LJ          -1.82552         -2.7814         1.15168
LJ           1.49516        -5.50486         6.37849
LJ          0.516734        -3.52983         1.35216
LJ          0.413615         2.65944          4.0069
LJ           3.84097        -1.62967        -2.11433
LJ           1.73446        -2.60208        -1.44838
LJ       -0.00947669        -2.91771         2.04664
LJ          -5.72652        -4.39803        -2.17763
LJ           -5.4093        0.726047         1.09839
LJ          0.931444         0.96079         1.23647
LJ          -1.06491       -0.725144        -1.68292
LJ           5.37102       -0.224082       -0.544888
LJ         -0.153031        -2.90035         4.49987
LJ           1.34206        -2.80499         3.50517
LJ           5.71154       -0.135515        -2.36078
LJ           1.40645         1.14401        -1.69167
LJ           3.20108         3.00149       -0.858917
LJ           5.41273         3.55631       -0.191647
LJ           3.42439        -1.06461        0.420589
LJ          -5.42952        0.284009      -0.0667337
LJ          -3.72852         2.65593       -0.899823
LJ         -0.345529        -2.41809        -3.08159
LJ          -4.25669         3.34403        -1.68657
LJ          -1.20201        0.127167         2.48321
LJ           2.32757        -4.29449       -0.293786
LJ           1.03437       -0.993332         4.24153
LJ         -0.247649        0.951174         1.70264
LJ           4.04047        0.295598         1.72109
LJ            3.5186         1.51079         1.85851
LJ           4.05978        0.987413        -2.64035
LJ           4.19439         1.12503         2.71962
