108
#Comment!
LJ           4.66359         5.00634         3.81268
LJ           2.81165        -2.90429         1.71321
LJ           2.27861         5.82791        -1.61886
LJ          -4.25733       -0.275498        -1.48831
LJ          -5.95809        -4.10637        -3.35037
LJ          -2.30434         3.54651         5.66932
LJ            5.3708        -1.68956         4.89784
LJ          -5.32308        0.731317         3.26006
LJ          -6.05268         5.81639         1.96076
LJ            2.7955         3.10553         3.54078
LJ          -5.74985        0.222583         5.99948
LJ           -3.4534         6.43263        -4.17899
LJ          -1.53386        -1.63485        -4.38615
LJ          -2.73849         5.27969         1.73414
LJ          0.910253        -3.56832         2.20782
LJ          -4.02104       0.0988016         4.63018
LJ          -1.22272         3.76301        -6.29735
LJ            4.9248         2.79621        -1.56564
LJ           6.39047        -1.83866         4.44069
LJ          0.838839        -3.52606        0.798058
LJ           2.34925         1.68275         4.75767
LJ           4.70274        -1.59314        -4.95439
LJ          -5.45588        -4.96972         4.15795
LJ         -0.540129        -2.70483         3.09947
LJ          -4.64499         2.73928          -1.415
LJ           5.65238        -5.77613         5.03326
LJ          -1.22078         1.30154       -0.857122
LJ           3.59489        -3.53405         5.80539
LJ           3.65431        -3.98952         2.85161
LJ         -0.544144        0.417295        -3.42261
LJ          -5.25988        -4.36943         2.80064
LJ          -5.77893        -1.35622         2.80187
LJ           3.19314         1.01215         1.43227
LJ             4.149        -3.42043         6.30551
LJ          -3.86483           4.391         4.73322
LJ         -0.757349        -1.61168        -1.13129
LJ          -1.38206        -2.86083        -5.82758
LJ         0.0302311        -3.47633         4.11822
LJ           -3.9957         2.17563          -5.172
LJ            4.4047        -4.04886         2.35854
LJ           4.41288         2.74084        -2.70035
LJ          -0.93003       -0.784511         6.21439
LJ          -5.04728       -0.856826         3.89532
LJ          -2.55602        -4.91338         2.80706
LJ           1.00314         2.30939        -2.24127
LJ           5.70506          6.3833         4.87788
LJ          -5.53659         3.41632         5.81903
LJ          -1.67965        -2.31532       -0.261903
LJ          -5.92904        -2.68412        0.348778
LJ           2.15337         5.35131         5.26629
LJ          -1.52725        -3.34242         1.76588
LJ         -0.686174        -2.14035         1.72029
LJ           4.96081        0.727039        -5.46276
LJ          -1.15989        -2.08314       -0.154889
LJ           1.82882        -1.27151        -3.47312
LJ          -4.12503        -4.68363         3.73146
LJ           -2.5863         -5.2088         6.20115
LJ           4.85259         3.99412        -4.59454
LJ           -1.4523         4.46386        -3.58113
LJ          -5.67762         4.25966        -4.02029
LJ           5.10629         -4.2977         2.69911
LJ           6.06203        0.853406        -3.27136
LJ           1.83009       -0.794777         4.82412
LJ           2.73441        -5.54982        -1.51393
LJ          -4.65705        -5.96911         2.65126
LJ         -0.719743         -1.9651           1.268
LJ           6.46278         2.35513         3.41931
LJ          -6.43278        0.542926        -3.09451
LJ            2.0755         -2.2287          2.7451
LJ           3.28775         5.97536         0.91949
LJ          -2.74715        -1.70692         1.17748
LJ          -5.52049        -3.49524         6.01894
LJ           4.30422       -0.755076         6.44309
LJ          -4.15742        -2.77103        -5.84462
LJ           4.66734        -2.48819        -2.75719
LJ           2.18861         2.23334       0.0327278
LJ           2.17633        -4.06691        -5.85673
LJ           1.81046         6.40604        -3.78276
LJ           1.10822        -5.66635        -5.60896
LJ          -2.18825         6.44496        0.562246
LJ           -6.1271         2.88275         3.02171
LJ          0.301506         2.93489         2.17548
LJ          -3.18973          3.0238         3.82176
LJ          -2.91588         1.76384         -6.2666
LJ           3.22489         4.90248         4.29032
LJ           1.84302        -2.78873        -3.21554
LJ           2.96085        0.388365         1.60212
LJ         -0.609645         -2.4743         -4.2726
LJ           4.47717          6.3788         4.96129
LJ           2.05756         1.57031         5.78912
LJ          -3.76312          5.4386        -1.35373
LJ          -6.08923        -1.86856        -5.09511
LJ          -5.39988         5.07056         1.96654
LJ          -6.15065         1.47253         -4.3415
LJ           2.17163        -6.26435         4.02938
LJ           1.63123        -1.96227        -1.77525
LJ          -1.23216        0.452952        -2.71239
LJ          -5.77728        -1.83813         -2.1713
LJ           3.15494         5.76177         1.99571
LJ       -0.00137551        -2.50653         1.05294
LJ         -0.795629        -4.27401        -3.17808
LJ           -0.4917         2.16045         6.33185
LJ            3.6035         3.19541       -0.695449
LJ           4.67854         5.32035        -5.82003
LJ            5.5216       -0.289016          3.1074
LJ          -4.61017         3.87377         1.46766
LJ           1.41517        -1.70349        -5.77742
LJ          -2.11819         5.25906        -3.11099
