108
#Comment!
LJ           2.48487         3.65533        -4.64069
LJ          -5.36342        0.631075        -4.42902
LJ          -6.07616       -0.434479        0.239076
LJ            2.3327         6.12842         5.83254
LJ           1.49309        -1.03516        -2.88293
LJ           6.22352         4.49654         1.81732
LJ         -0.251993        -2.12478        0.929672
LJ          0.865842      -0.0994987        -3.73976
LJ          -4.51552         -4.5105         6.28168
LJ        -0.0256178        -4.06716        -5.00603
LJ           2.30931         4.42462        -5.35272
LJ           6.20692        -6.16676        -1.53918
LJ           6.19378        -1.10475       -0.177457
LJ          0.535056         5.41733        -4.69094
LJ          -0.15043         3.52901        -2.08645
LJ          -4.62171         3.17645         1.31069
LJ           3.46463        -1.38002        -4.36491
LJ         -0.174107        -1.85498         6.21384
LJ           -2.8672       -0.825621        -2.02102
LJ           3.39668       -0.296128          0.4578
LJ         -0.509823        -3.14433         -4.0407
LJ           1.98663        -3.26561         5.34686
LJ           4.23103         2.48491         2.65222
LJ          -4.13133         2.11851         3.68259
LJ           6.43784        0.338965         4.99425
LJ          -4.94453        -1.27471         5.42777
LJ          -6.00882        -1.49178         5.99731
LJ          -2.62406         4.05186         5.33395
LJ           4.27555         2.11493         4.69057
LJ            3.8072         4.51055          1.4299
LJ           0.17665         4.76332        -3.84318
LJ           2.24645        -3.30184        -6.08041
LJ            5.3059         1.27023         6.43983
LJ         -0.956883         4.92508         -5.0851
LJ           3.99772        -2.78784           6.191
LJ           3.74746       -0.297132       -0.641604
LJ          -2.53705          5.0037         4.81129
LJ            0.5651        -1.45153        0.550803
LJ          -1.99155         2.33851         1.21244
LJ          -4.70684        0.607477       -0.936952
LJ           1.95615        -1.76819       -0.594077
LJ          -5.19381        -2.41895        -5.84213
LJ          -5.76686         4.58158        0.847077
LJ         -0.896536        -3.18881        0.733182
LJ          0.153729        -2.47559       -0.129061
LJ          -5.08683          1.8401         2.69657
LJ           3.56725       -0.312488        -2.55582
LJ           -2.3797        -2.53394        -1.11147
LJ           5.57851        -3.21361        -4.62151
LJ           6.10323       -0.134537       -0.630861
LJ          -5.96091         1.01235         2.57515
LJ            2.2171         1.91556         5.56788
LJ           4.09334        0.985171         5.10628
LJ          -5.61642         1.88779       -0.225776
LJ          -1.42986         3.59259        -2.68218
LJ          -0.83878        -2.64198         5.90237
LJ          -2.07977       -0.399763        -4.21242
LJ           6.34425          1.3927        -3.65267
LJ          -3.95989        -4.81313         1.73164
LJ          -5.96757       -0.891637        -0.97113
LJ          -4.80918        -5.77495         5.21291
LJ          -2.00487         4.61822        -5.97561
LJ            4.1767        -3.51389        -2.30471
LJ          -4.37606         1.13122        0.184056
LJ          -3.51065         3.26055        0.453689
LJ           1.30004         6.19733         3.62949
LJ          -3.60376        -2.39692        -1.15381
LJ            2.1494         1.42514         1.54907
LJ           3.07365        -2.50526       -0.707098
LJ            2.4446         3.91369         2.28015
LJ          -1.81419         1.10931         2.43685
LJ           1.34371         -2.1341        0.376039
LJ          -1.76797        -2.48038       0.0466575
LJ          -1.55328        -1.49942           1.244
LJ          -4.81501         3.62093          4.3896
LJ          -5.44885         5.74247        0.701871
LJ          -3.84251        -6.42935        -5.79513
LJ          -1.97009        -2.65203           1.702
LJ           1.65527        -6.06112        -6.22725
LJ         0.0601881         -3.6004         1.56961
LJ           0.36595         2.00233         4.17209
LJ           3.80726         -1.9442        -2.10934
LJ            1.6952        -2.32988        -1.57026
LJ         -0.456566        -2.57746         2.03526
LJ           -6.0395          -4.563        -2.47651
LJ          -5.77297        0.520658         1.11849
LJ          0.962769        0.849646         1.57119
LJ          -0.92498       -0.647402         -1.9658
LJ           5.02154       -0.382749       -0.634171
LJ        -0.0625096        -3.52034         4.80863
LJ            1.9036        -3.41711         3.62602
LJ           6.06501        0.176472        -1.57604
LJ           1.65414         1.53702        -1.86754
LJ           3.17732         3.56196        -0.30649
LJ           5.79369         3.69671       -0.499976
LJ           3.69152        -1.40275        0.084613
LJ          -5.41066         0.65651      0.00735601
LJ           -4.1197         3.05351       -0.941743
LJ         -0.490568        -2.43419        -2.43152
LJ           -4.3402         3.38748        -2.02651
LJ          -1.09433        0.239147         2.24242
LJ           2.22194        -3.52652       -0.307244
LJ           1.26277       -0.855025         4.58246
LJ         -0.362383         1.10171          1.3595
LJ           4.14688         0.42699         1.87349
LJ           3.74193         1.53769         1.72387
LJ           4.43341        0.667046        -2.68197
LJ           4.24208         1.19061         2.67851
