108
#Comment!
LJ          -3.10131          2.4935         3.93523
LJ           3.51185        -6.34607        -4.55808
LJ           5.32981        -2.01955          2.7765
LJ        -0.0116966        -1.01991        -3.13291
LJ          -4.29958         5.03971         5.35159
LJ           5.62741       0.0938986         3.25512
LJ           4.58774         4.33762        -1.80017
LJ           -5.0678         4.74298        -6.08144
LJ          -3.13315         6.05047         5.70426
LJ            -1.453        -2.71027          5.1203
LJ          -6.44074        -6.30568          -2.414
LJ          -4.06513        -2.46554        -1.19536
LJ           1.01209         1.68343        -2.33114
LJ           6.32071        -4.44753         1.32172
LJ            6.2355       -0.330468        -2.33851
LJ           2.88682         3.96875         2.54769
LJ           4.70772        -2.37382         4.00799
LJ           5.03899        -4.17369         3.24897
LJ           6.25809        0.722849       -0.757548
LJ          -2.78276        0.154743        -3.36973
LJ           2.08547        -4.44023         4.87385
LJ           5.44075        -3.70742        -4.19893
LJ           3.42902         4.04582         3.30721
LJ          -2.31988        -4.57849       -0.477809
LJ         0.0444388         -6.1625         5.40918
LJ           5.77392         3.42783        -1.78203
LJ          0.986785        0.317553         5.83907
LJ          -1.30128         5.43602        -5.00784
LJ           1.31972         -5.1197        -0.15433
LJ          -3.03934       0.0494803       -0.850417
LJ          -1.35711         -3.5988       -0.445358
LJ           4.88408         1.09588         3.16977
LJ          -1.35397         3.20083        -0.93333
LJ           1.05051        -1.76518        -2.48049
LJ           4.52053         2.19234         1.22029
LJ          -5.82615          2.7148        0.818354
LJ          -2.69301         3.50573        -2.60683
LJ           2.90909          3.5117        -1.00857
LJ          -2.84715        -2.52035         6.26868
LJ           -1.1324        -4.91653        -1.02034
LJ          0.453998         4.46782        -6.01169
LJ           3.83503         2.75699        -3.73888
LJ          -1.41209        -2.72417         5.77924
LJ         -0.404018        -3.61927        -6.32921
LJ           6.36589        -1.48471        -4.47136
LJ          -2.26693         -5.3907         5.92224
LJ          -5.22397         4.27913            -6.4
LJ           3.31673        -4.47937        -3.18938
LJ          0.956174        -1.98666         3.95123
LJ          -4.09895         1.46805         3.66975
LJ           4.10406        0.705411        -2.40163
LJ          -4.32985         5.05015         0.54935
LJ          -0.33434       -0.614474       -0.718296
LJ           1.52347        -3.61202        -5.58658
LJ          -6.10756         5.28896        0.171106
LJ          -6.17249       -0.032861         5.32643
LJ           5.72717        -3.27811        -1.37939
LJ            3.2991        0.299607      -0.0859586
LJ          -6.14711         4.14828        -6.28888
LJ          -2.81542        -4.04555        -0.95857
LJ           2.02955         6.17969         5.76521
LJ           3.92044         5.89183        0.804704
LJ          -2.41342        -4.83588         6.29651
LJ          -5.02692        0.358499        -5.49492
LJ           0.67528        -5.08312        -5.84456
LJ          -2.43349         3.75348         -4.4882
LJ          -2.66969        -5.31745        0.537395
LJ           4.11743         -5.7093        -4.41494
LJ           5.41867        -5.22025        -5.97637
LJ              3.04         3.63337        -6.03876
LJ           4.75483         3.97238         6.35417
LJ           1.02355         -5.3464       0.0810991
LJ          -2.76532         -4.9615        -6.06169
LJ          -4.11081         2.01455         3.11679
LJ           2.48888         4.68956         4.54593
LJ            -2.248          2.0462        -1.91307
LJ          0.704962         3.73498       -0.116441
LJ           5.44989         -6.4113         1.93175
LJ           2.78878         5.27926        -2.46354
LJ           4.16331         4.68833        0.910998
LJ            2.5594         3.66262        -1.72478
LJ           4.50915        -5.25691        -6.33171
LJ          -5.62877         3.93524         1.16647
LJ          -2.09127         4.17057         5.79984
LJ          -4.66605        -5.72066         3.91289
LJ           5.99116         4.22782        -2.41775
LJ         -0.470496         5.50201        -5.69396
LJ           3.35906        -4.33607        -0.40081
LJ          -2.68316         1.91509         4.05298
LJ          -4.61154         4.79466        -5.11561
LJ          -1.86521        -5.22138         5.88886
LJ           -6.2748        0.675703        -3.14759
LJ          0.417154       -0.547648         2.91442
LJ          -3.34908         1.70831         2.32512
LJ           -2.2562         3.87465         1.97555
LJ          -3.00906         3.85991        -0.53185
LJ           2.79356        -4.51365         4.23122
LJ          -5.62655        0.543121         3.99421
LJ           1.42719        0.259034        -1.81333
LJ        -0.0360519        0.547671         4.84231
LJ           1.22882        -2.30367        0.525281
LJ          0.625457        -3.34507        -2.19209
LJ           0.90778        0.400184         1.63713
LJ           2.62907        0.156071        -1.79934
LJ         0.0887956        -1.26011         5.44712
LJ           2.31191         6.38115      -0.0858736
LJ           -1.1291        -4.26059        -1.86523
LJ           5.67258        -6.26058        -6.14815
