108
#Comment!
LJ          -3.12605        -3.16048        -3.17823
LJ           -2.0638        -2.25336        -3.09072
LJ          -3.22046        -2.19038        -2.20492
LJ          -1.99249        -3.21651        -2.11327
LJ         -0.961499        -3.21192        -3.13289
LJ           0.17991         -2.1762        -3.29696
LJ          -1.17501        -2.17483        -2.12422
LJ        -0.0104541         -3.1945        -2.13097
LJ           1.28922        -3.26019        -3.21604
LJ           2.01217        -2.09714         -3.1697
LJ           1.04563         -2.3146        -2.25149
LJ            2.0634        -3.24495        -2.18475
LJ          -3.30818        -1.08017        -3.13623
LJ          -2.06366       0.0481181        -3.21915
LJ          -3.17769        0.126395        -2.07545
LJ          -2.17979        -1.17092        -2.08104
LJ          -1.02373        -1.00757        -3.15925
LJ         0.0197066       -0.118461        -3.29777
LJ          -1.10351        0.162311        -2.20428
LJ         0.0285159        -1.07052        -2.15829
LJ            1.0522        -1.07203        -3.18579
LJ           2.04141        0.123684        -3.13495
LJ           1.10359        -0.14925          -2.005
LJ           2.32631          -1.062        -2.08875
LJ          -3.30119         1.03619        -3.29487
LJ          -2.29779         2.17071        -3.25998
LJ          -3.24138         2.03575        -2.19306
LJ            -2.176         1.12371        -2.15446
LJ          -1.13537         1.00909        -3.14289
LJ         -0.107388         2.05271        -3.20434
LJ          -1.16603         2.20792        -2.25074
LJ         -0.146043         1.05226        -2.15587
LJ           1.01603        0.954842          -2.945
LJ           2.01477         2.06675        -3.19204
LJ           1.01316         2.11806        -2.17105
LJ           2.02399         1.20354        -2.09158
LJ          -3.14457        -3.33137        -1.02253
LJ          -2.12919         -2.2761        -1.05312
LJ          -3.22591        -2.32694      0.00200385
LJ          -2.17382        -3.10863       0.0231405
LJ         -0.986493        -3.18248        -1.00608
LJ          0.030001        -2.03595        -1.15746
LJ          -1.13863        -1.96413      -0.0710321
LJ          -0.02796        -3.18893       -0.121482
LJ          0.898535        -3.16365        -1.12363
LJ           2.34108        -2.07255        -1.01923
LJ           1.08164        -2.09598       -0.108478
LJ           2.07359        -3.19228       0.0276541
LJ          -3.28045       -0.850745        -1.05475
LJ          -2.07978       0.0277625        -1.20763
LJ          -3.37451      -0.0269978       -0.113418
LJ          -2.22809        -1.01224       -0.151209
LJ         -0.964859        -1.31965        -1.36173
LJ         0.0504405        0.129241        -1.11417
LJ          -1.00729      -0.0433137       0.0347374
LJ        0.00277413        -1.10185        0.108324
LJ           1.07901        -1.09007        -1.16763
LJ           2.17376       0.0467657        -1.13701
LJ          0.982098      -0.0539128      -0.0595536
LJ           2.06335        -1.05727      -0.0103323
LJ          -3.26543         1.21627       -0.991484
LJ          -2.06787         2.11863        -1.16406
LJ          -3.34713         2.14625       -0.128891
LJ          -2.16694        0.975849      -0.0311365
LJ          -1.10911        0.987338       -0.950464
LJ        0.00991551         2.07706        -1.18129
LJ          -1.04115         2.00228      -0.0791388
LJ         0.0355987         1.17336       -0.118182
LJ          0.996675         1.07228        -1.14618
LJ           2.03634         2.16273         -1.0609
LJ           1.00744         2.11184       0.0529272
LJ           2.10572         1.18997       0.0729671
LJ          -3.18779         -3.2179         1.08256
LJ          -2.17282        -2.11889         1.19286
LJ          -3.19769          -2.018         2.12661
LJ          -2.19366        -3.31209         2.11133
LJ         -0.970885        -3.35117         1.17605
LJ        -0.0188691        -2.26505         1.09853
LJ         -0.932505        -1.96789         2.18378
LJ          0.071557        -3.17401         2.11327
LJ          0.966213        -3.25984        0.984593
LJ           2.18832        -2.18724          1.0378
LJ           1.13674        -2.20118         2.10638
LJ           2.13221        -3.28534         2.15044
LJ          -3.23582        -1.10976         1.12331
LJ          -2.26628      -0.0218303           1.052
LJ          -3.15467       0.0480001         2.16859
LJ           -2.2322        -0.96179         2.08045
LJ          -1.17964       -0.963143         1.06529
LJ        -0.0920268       -0.125587          1.1484
LJ          -1.02061      -0.0413696         2.05704
LJ         0.0694784        -1.10748         2.31728
LJ           1.12812        -1.12756          1.0376
LJ           2.10346        0.100463         1.09954
LJ           1.23182       0.0958305         2.06621
LJ           2.13953         -1.0467         2.04305
LJ          -3.22592         1.08821         1.01827
LJ            -2.159         2.22761         1.05565
LJ          -3.13993         2.04515         2.27596
LJ           -2.0345         1.10243         2.03683
LJ          -1.01989          1.0081         1.19656
LJ        0.00511999         2.26647         1.07833
LJ          -1.02442         2.14172          2.2536
LJ        -0.0647333         1.05112         2.26557
LJ           1.18706         1.15934         1.04669
LJ           2.22199         2.07871         1.08808
LJ           1.05155         2.01219         2.11702
LJ           2.25966         1.06007         2.26114
