108
#Comment!
LJ          -2.00202        -5.66921        0.375038
LJ           2.59797          5.1703         2.43631
LJ          -4.64168         3.00592        -1.39906
LJ           2.21948        -1.96189         -3.4299
LJ          -5.07417          4.7013         3.34546
LJ           6.21476        -6.46108        -4.97057
LJ          -3.41297        -1.37672          3.6541
LJ           3.05252          2.0768        0.605265
LJ           2.88563        -4.19644        -1.82367
LJ          -2.31853        -5.38521          5.1012
LJ           2.82205         6.14977       0.0810444
LJ           1.58896        -4.60284        -6.43345
LJ          -4.82911        -3.91125         2.89722
LJ           3.71991         0.63596        -3.35256
LJ           1.98658        -5.53772        -4.83308
LJ          0.708289         5.71077         -2.1577
LJ           5.92693         2.36958         2.26389
LJ          -5.62595         1.02239        -3.36034
LJ           3.50675        -1.93239         4.00109
LJ           3.85806         1.86924        -6.44707
LJ            4.9801         4.75603         4.08473
LJ          0.222847         1.41792        -3.40905
LJ          -3.79894          3.7158         5.44877
LJ          -4.48001         1.96623        -6.21011
LJ          0.992193        -2.30394        0.011952
LJ           3.28543        -2.04044         4.50465
LJ          -1.80156       -0.720676         -2.1961
LJ          0.718241         5.90455         5.53106
LJ           1.54997        0.231618        -3.11165
LJ           4.72205         2.74657        -6.21435
LJ           2.93697       -0.552119         4.18489
LJ           3.90511         3.12682        -2.26723
LJ          -2.58435         -4.5833         -6.1606
LJ          -6.00379         4.20093        -2.89784
LJ           3.25589         3.11771          2.8749
LJ           4.11056         5.87284        -6.31988
LJ          -5.43328         1.09435        -3.81657
LJ           4.98073        -1.78922        0.904243
LJ           -6.2795        -5.94325        -5.73153
LJ          -6.17897        0.381856        -2.61048
LJ           -5.8862        -2.88868         1.93581
LJ          -2.77261       -0.969529          5.3418
LJ          -3.56261         -1.2276        -5.35084
LJ          -5.26295         6.30569         1.83196
LJ           2.38859         5.15515        -3.11957
LJ           4.70395        -4.53876       -0.694663
LJ           6.18429        0.539163        -3.15775
LJ           5.89061        -3.21472         4.18157
LJ           0.19399        -3.13197         -1.8846
LJ          -4.07155         5.02108         0.13534
LJ          -4.71586        0.485127        -3.22667
LJ           4.00225        -1.54601         4.76407
LJ          -6.30213        -5.69175         -6.2469
LJ           4.80717        -5.76936        -4.53342
LJ           2.66556         1.81062         3.54229
LJ          -5.83951        -1.34325        -5.77397
LJ           4.55862         4.40578         6.31554
LJ           6.10766         3.78556        -2.50094
LJ           4.11444        -3.04371        -3.54742
LJ           1.41015        -1.77752        -1.23193
LJ           5.31393         2.07418        -1.57599
LJ          -3.32542       -0.255505       -0.166985
LJ           5.06464         2.63776         1.48955
LJ          -5.41211         3.25514         5.63114
LJ         -0.831485         2.05133       -0.883557
LJ          -4.50982        -4.67683        -1.75529
LJ           3.71845        -4.00561        -1.24037
LJ          -3.77215         1.01175         6.16234
LJ           3.79061       -0.726277        -3.60686
LJ          -2.26116        -1.76893       -0.430915
LJ           3.02619        -1.47148          1.5662
LJ           3.30113        -5.92121        -5.43471
LJ           -1.2243        -5.08521        -3.74805
LJ          -4.51683        -5.85365        0.850036
LJ          0.704684        -2.02665        -4.77316
LJ          -2.91237        -0.92667       -0.401429
LJ          0.790779        -1.59604        -5.06517
LJ            6.0489         6.17312       -0.332973
LJ           0.94002        -4.60514         1.84815
LJ          -5.86353         3.58792         -4.5513
LJ           2.09906       -0.524331        -6.11087
LJ          -4.81032         2.63867        -3.70926
LJ           1.52267        -5.23882        -3.21002
LJ         -0.971306        -5.21725          5.7878
LJ          -5.96358         1.47916         1.89163
LJ          -2.35357        0.663168        -3.10166
LJ          -2.26891          -1.829        -4.00896
LJ          -2.34855        -2.62474        0.709418
LJ          -0.60042           5.337         1.96181
LJ           4.59996        -5.53456         1.25944
LJ           5.57716         -3.1001        -4.89305
LJ           4.17721         1.11251        -1.93434
LJ          0.919159         2.75672         4.89221
LJ           1.46321          5.9487        -1.22614
LJ          -1.14456        -4.07042        -1.19147
LJ           5.62667       -0.241209        -6.21645
LJ           6.18481         6.29282        -2.99476
LJ          -4.05599         5.34351        -2.41249
LJ          -5.39371         2.18319        -3.12323
LJ          -6.10999         1.75756         4.85097
LJ             4.944         4.16515         1.24555
LJ           4.40025        -5.37067         2.04669
LJ          -5.37764        -4.77575         5.04256
LJ         -0.107773        -1.38264        -6.07492
LJ           2.70155        -3.11741        -4.82972
LJ         -0.666837        -4.39971        -2.77876
LJ          -3.51245         4.92395        -4.31175
LJ          -3.54506         3.66683        -5.63471
