108
#Comment!
LJ         -0.973045         1.47965        -5.62523
LJ          -4.51264        -6.37631        -1.03986
LJ         0.0771882         2.68723         1.09881
LJ          -5.30946         2.77129       -0.830876
LJ           3.61275        -4.85031        -1.17828
LJ           6.11786       -0.561504        -4.47093
LJ           1.81423        -4.64076         1.03962
LJ          -2.56516        -6.26075         5.05137
LJ            4.6181        -2.31738         2.30429
LJ           3.15269        -1.89572         1.30972
LJ           -6.0649        -3.12803         2.72645
LJ           -3.3439        -4.64802          -1.792
LJ          0.156591         1.77355        -5.94772
LJ           2.38957        -4.43976         1.00733
LJ          -1.08821         2.37005       -0.989638
LJ          -3.76569         5.64172        -1.76767
LJ           3.15553         6.12141        -3.79972
LJ          -1.71565        0.145791        -3.71529
LJ          -4.70656         6.29798       -0.965694
LJ           1.35067        -4.21822        -5.41699
LJ           1.48917         2.09702        -3.01689
LJ          -2.41747        -3.33983        -3.15907
LJ         -0.639002        0.744019        -5.44178
LJ           4.82208        -3.75448         2.26625
LJ           5.64616          5.3713         3.43633
LJ           2.39661        -1.86305         -2.9011
LJ         -0.313125         4.03008        0.714461
LJ          -3.31769         5.99102       -0.228728
LJ          -4.54162       -0.846699        -6.07636
LJ          -1.90801        0.143515         1.19343
LJ          -2.68337         2.43485         4.23785
LJ          -4.03585        -1.33634        0.947942
LJ           4.94623        -2.79957         5.66545
LJ          -1.73708        -6.38559        -2.18574
LJ           1.42782         2.06354        -3.33293
LJ         0.0914973         4.60104         4.51878
LJ          -5.69201        -0.88765         -5.5613
LJ           5.10616        -3.26985       -0.727657
LJ           1.26326        -5.65307        -5.85694
LJ          -2.24633         2.75137         1.96724
LJ           2.67752        -3.76197        -4.71437
LJ           5.28716        -2.05245       -0.293625
LJ           5.83741         1.45409        -1.65726
LJ           2.17573        0.102659         -2.5229
LJ          -2.36053         4.94817          -3.658
LJ          -4.52745        0.411485        -3.16881
LJ           2.13852        -1.96713         -4.3154
LJ          -2.29079         1.46075         5.05777
LJ           2.42314        -3.25976        -2.49651
LJ            4.1904        -6.33146         2.59722
LJ          -4.19571        -3.99277        -2.33358
LJ         -0.288975         6.40252         -2.8117
LJ          -4.55681        -2.06762         2.91879
LJ           3.12952        -5.17579        0.696772
LJ           2.72574        -3.70855         3.12382
LJ           5.03437        -4.49317         2.94129
LJ           1.92328        -1.78775        -5.50872
LJ          -6.09374       -0.572188         5.01581
LJ           5.81567         -4.9308        -3.32579
LJ          -2.22802        -1.78992        -5.31066
LJ          0.213432         3.98811         3.90137
LJ          -2.63174         4.04581        -4.81079
LJ           2.92107        0.946307         3.19778
LJ           1.66876        -4.55496        -4.60263
LJ           5.30652        0.241744          1.4693
LJ          0.901607        -5.19571        -4.35115
LJ           3.24795        -4.71498        -5.88356
LJ          0.135906         4.47674         3.02168
LJ           1.04191         3.81226        -1.91692
LJ           5.05107        -2.74519        -2.64335
LJ          -1.47292         5.14954         3.61166
LJ          -1.48344         1.98945        -1.69226
LJ             3.159         5.96791        0.161808
LJ           4.54072         5.13371         4.86062
LJ          -3.13844         3.69388        -6.14577
LJ          -1.26479       0.0440253         6.46205
LJ           5.97774        -6.41665        -4.96468
LJ          -3.31787         3.32906         3.06737
LJ           3.59309         4.65466         -2.2159
LJ         -0.213454        -2.92367        -1.36008
LJ          -2.55621        -5.73441         1.97607
LJ          -5.03969        -2.09727        -5.40841
LJ           2.36832         2.69453        -4.59257
LJ           5.73464       -0.733642        -4.88542
LJ          0.433522        0.499017        0.079464
LJ            1.7355        -3.98064         1.20848
LJ           2.08205         6.42862        0.824749
LJ          -3.68293        -2.72909        -5.24012
LJ          0.264876         2.66573        -5.95484
LJ          0.535807        -2.52623      -0.0772411
LJ           3.85687        -3.31252         5.18893
LJ           1.32126         6.03131        -2.00092
LJ         -0.563421         4.49995        0.478186
LJ            1.9174         2.35458        -5.27916
LJ          -1.40628       -0.523031        -2.63622
LJ          -2.88633         -6.2369         3.39882
LJ            1.6554        -5.77406        -5.19211
LJ          -1.77578        0.258507         1.16924
LJ         -0.361094        -5.87649       -0.424345
LJ         -0.212157       -0.290617        -2.35812
LJ           5.09644         1.38612       -0.933185
LJ           1.48267         3.67855         5.94576
LJ           3.38125         3.49295        -1.52762
LJ          0.716252         4.43093       -0.360663
LJ          -4.99478        -3.49732         4.04179
LJ           -1.9081       -0.356072         4.17186
LJ           4.00753         3.28398         4.36981
LJ          -5.73373        -5.15594        -3.21379
