108
#Comment!
LJ          -4.30323        -4.21662        -3.34033
LJ          -2.29208         -1.3948        -3.36881
LJ          -3.14167        -1.92075        -2.45142
LJ         -0.610269        -4.68283       -0.943396
LJ         -0.267142        -3.31233        -3.04269
LJ           1.49243        -2.88987        -4.83834
LJ          -1.55339        -2.00223        -1.10926
LJ         -0.254148         -2.0424        -2.41424
LJ           3.38516        -2.88454        -4.03278
LJ          0.902923        -2.47075        -2.63074
LJ           1.30232        -4.32579        -3.79877
LJ           1.58077        -3.44353        -1.39553
LJ          -3.76027        -1.04017        -1.29788
LJ          -1.97291        0.153823         -3.5961
LJ          -2.38367         1.29394        -1.64711
LJ          -2.96677        -2.95712        -1.15181
LJ          0.365019       -0.455949        -2.67256
LJ          -0.35307        -1.13666        -3.67685
LJ         -0.632074       -0.405292        -1.61456
LJ           1.06309        -1.07219        -2.02333
LJ           1.36199        -1.31647        -2.95592
LJ           1.24057        0.154257        -2.82756
LJ           2.10094        0.164274        -1.05966
LJ           3.82764       -0.663602         -1.1359
LJ          -3.88745         0.73872        -4.29944
LJ          -4.04895         1.72958        -3.27123
LJ          -3.22959         1.08711        -2.95191
LJ           -1.2032        0.630493        -2.90386
LJ          -2.94194         1.36483        -5.03643
LJ          -1.93968         1.85829        -4.19239
LJ          -2.21128         2.06155        -3.06425
LJ         -0.107507        0.996265        -2.79386
LJ          0.605364        0.138499        -1.50961
LJ          0.602862         1.62143        -3.41347
LJ         -0.242107         2.43855        -1.95157
LJ           2.28662         1.45989        -2.23905
LJ          -2.10418        -4.62761        0.523422
LJ          -1.43344        -3.07003        -1.55174
LJ          -3.40573        -4.69285        0.140339
LJ          -1.51169        -1.21186       0.0727065
LJ          0.602525        -3.15923         -1.0139
LJ          -0.83177        -1.01343        -2.60127
LJ          -2.75873        -1.40125       -0.673358
LJ        -0.0192868        -2.31954      -0.0453899
LJ          0.471589        -1.65845        -1.20719
LJ           4.35586       -0.856861        0.134011
LJ           1.88789        -1.77839       -0.819927
LJ          0.277523        -3.09815        0.861424
LJ          -3.73488       -0.397246        -2.42708
LJ          -1.96291        0.463262        -1.08994
LJ          -5.11566        0.990586        0.472011
LJ          -4.31067       -0.841696       -0.142968
LJ          0.735661        -2.96882        -3.58877
LJ           -1.0954         1.41268       -0.981338
LJ         -0.853116       -0.130094        0.098545
LJ          0.160617        -1.13275        0.638418
LJ           4.38517        -1.96388       -0.304312
LJ           2.83994        0.794703        -1.51049
LJ          -0.79483        -1.23034       -0.704221
LJ           0.40279       -0.982639       -0.413426
LJ          -3.50289          2.3632        0.285834
LJ          -1.68546         2.05846        -1.57405
LJ          -5.35907         3.76108       -0.377753
LJ          -2.78836       -0.333553       -0.306932
LJ          -1.77638        0.439241        0.149751
LJ         0.0840493         3.00402       -0.885071
LJ          -1.59046         2.29371       -0.607147
LJ          0.377122         2.12245       0.0809438
LJ          0.780149        0.587598       -0.527864
LJ          0.747167         4.11533       0.0504214
LJ          0.453718          1.1008          1.1784
LJ           1.56007         2.94931       -0.313684
LJ          -2.10362        -2.14331        0.716345
LJ          -2.11073        -1.79612         1.78045
LJ          -2.57411        -0.43223         3.23175
LJ          -2.66637        -4.09264         1.15952
LJ          0.926877        -4.38885         2.97294
LJ           -1.3917        -2.84721        0.860128
LJ         0.0739867       -0.543886         3.36783
LJ          0.782706        -2.81184          1.8747
LJ          0.833727        -4.52406         1.52972
LJ           2.68621        -1.99622       -0.160558
LJ           1.73816        -2.70374         1.05132
LJ           1.67191        -3.92137         1.77434
LJ          -3.01972        -1.90397        0.432399
LJ          -3.87737        0.410669        0.173979
LJ          -1.81733          1.1468         1.37632
LJ          -2.56098       -0.732849          1.0807
LJ          -2.64503        0.304972        0.687432
LJ         -0.630723       -0.764865          2.0393
LJ          -1.82322       -0.818714         2.64011
LJ            1.6698        -1.16566         4.46868
LJ          0.892784         -1.9434        0.305811
LJ           2.72124         1.36116       -0.608329
LJ           2.14102         1.69644         2.35029
LJ           1.72351       -0.337542        0.255202
LJ           -2.8518         1.37407        0.269588
LJ          -2.20633         2.30451         0.82161
LJ          -1.66654        0.243952         3.68367
LJ          -1.52724         1.40557        0.350815
LJ         -0.275164        0.255228        0.912252
LJ          0.487271         2.92653        0.683378
LJ         -0.419667         1.74318         3.06147
LJ         -0.632813        0.267442         3.19766
LJ           2.16911         1.50943        0.929393
LJ           2.89909        0.743376         1.47928
LJ          0.744069        0.421231         3.66177
LJ           3.16701        0.738793         3.05322
