108
#Comment!
LJ           2.08374        -4.37493         5.06344
LJ          -5.86362         1.43495        -0.31877
LJ           2.84143           3.249        0.858263
LJ          -4.31097         5.99344         -2.5499
LJ          -1.65652         4.92393       0.0199215
LJ            4.7959        -3.19819         5.70889
LJ           6.06571         3.55138         1.33032
LJ          -2.76031        -4.59876        0.464127
LJ           1.34578         4.60059        -1.37512
LJ          -2.53997        -4.30892         4.49772
LJ            1.3096         1.37498         2.79645
LJ          0.508505       -0.861152        -3.42072
LJ          -2.82132         0.19623        -3.27558
LJ           2.18606        0.462771       -0.764289
LJ           5.88356        -3.42897         1.23428
LJ           4.87876        0.418779         6.03511
LJ           2.76799         1.42665        -4.22919
LJ          -4.88268        0.716335       -0.698851
LJ          -2.12135         4.77553        0.164408
LJ          -5.96382         3.30182        -1.65992
LJ           2.37377          2.9019         2.03404
LJ           6.26559        -1.32342        -3.46954
LJ           2.66239        -5.01142         5.18279
LJ           1.26335        -4.35906         2.54944
LJ          -5.52869        -1.02776        0.836128
LJ           3.49794        -5.11363         4.20728
LJ           1.09971         2.43324        -4.81092
LJ           1.85873        -5.32403         1.60645
LJ           5.91808        -3.09531         6.03042
LJ           3.52758         3.28495        -1.01817
LJ          -4.57243        -5.24862         3.15853
LJ        -0.0410854        0.396605       -0.683615
LJ          -4.28199       -0.774363        -1.29594
LJ          -4.90259        -4.67987         6.16794
LJ         -0.827583       -0.283539        -1.25667
LJ           4.05441        -2.70927        -3.16642
LJ          -4.94252        -3.24984          3.2432
LJ           2.98095       -0.554847         2.56072
LJ          0.145355        -3.65068        -6.16575
LJ           2.05727         5.33233        -3.85867
LJ           2.26003         4.55307         1.07319
LJ          -5.89267        -4.33792         5.08188
LJ          -5.87613       -0.594743         1.86662
LJ           4.32148        -5.68571         6.42763
LJ           5.99744         3.89242       0.0982584
LJ           2.87044         3.37502        -3.50623
LJ           5.70448         1.38669         1.59178
LJ          -5.48364         5.52999        -1.48391
LJ            3.6757         3.33836         3.69539
LJ           2.61481         1.96079         2.96143
LJ          -2.98002        -3.13657        -2.17222
LJ          -1.71826         3.60643         2.62209
LJ            3.6674         6.27735         5.86445
LJ           3.27617         3.21783         3.51377
LJ          -3.14522         2.79466        -5.37641
LJ          0.696246         4.48894          1.3594
LJ           5.00255        -2.98172        0.565435
LJ          -2.19779        0.430421        -1.45327
LJ         -0.836204         3.47829         3.72391
LJ          -4.90933         1.85257       -0.389703
LJ           5.48295         1.27378        0.263089
LJ          0.214322         1.32103         -2.0457
LJ           4.57839         4.56442         4.12527
LJ           5.02829         4.39428         5.61536
LJ          -5.72451        -4.78393        0.704701
LJ          -1.38323        -0.98408         4.73192
LJ          -4.97323         -4.6296        -1.02507
LJ           6.39052         6.11979          2.1506
LJ           1.90263        -5.65291         5.52491
LJ          -1.15848       -0.744343        -1.19341
LJ          -3.30334         2.48006        -2.50244
LJ           3.47891        -4.39138         4.74176
LJ           2.67019        -3.36105         4.55946
LJ          -3.28948        -1.14524        -3.31209
LJ           -4.7984         5.71397        -1.39334
LJ           -5.2793        -1.52825        -3.37845
LJ          0.918194        0.800303         5.72703
LJ          -2.72652         6.13587         5.56321
LJ          -3.70156         -2.3134         4.34073
LJ         -0.247249         4.59632        -2.00254
LJ           4.84325        -2.23914       -0.575022
LJ            -4.274         5.69173        -3.19205
LJ           1.29355         5.75459        -4.76247
LJ           6.30542       -0.363037       -0.487128
LJ           1.82333         4.03163         6.42351
LJ          0.313472         3.96122        -4.29611
LJ          -1.24418         1.89732       -0.973209
LJ           -4.3278     4.89423e-05         3.71909
LJ          -1.17634        -3.51889         3.89674
LJ          -1.73941         -4.4855         3.59836
LJ          -1.02311          2.5115        -5.05707
LJ           4.16401         2.69241        -5.10813
LJ           1.44968         4.75891      -0.0448569
LJ           6.42454        -2.13384        -1.42252
LJ          -2.27386       0.0606082        -2.58652
LJ           6.19878        -1.02402        -1.47774
LJ           5.32584        -4.48439         4.50355
LJ          -5.91091        -3.19883        -1.02129
LJ           2.24494         2.04496         4.26824
LJ           2.80618         3.90744         -3.6594
LJ          -4.82228       -0.702678        -2.15467
LJ          -2.19582         4.78784       -0.782005
LJ          -6.25447        -5.22519        -4.42081
LJ          -6.18006        -4.13161       -0.493469
LJ          -1.78681         2.39289        -5.03364
LJ           6.10881        -1.42682         2.91957
LJ           6.30132          4.5367        -3.58552
LJ          -2.03022        -3.94483         1.44902
