108
#Comment!
LJ          0.785537         3.61959          1.2401
LJ          -2.86928         3.40046       -0.326864
LJ         -0.820413        -6.14518         2.05699
LJ            6.3888        -4.18951         3.41276
LJ          0.549697         3.21035         1.90496
LJ          -5.30734        -3.47328         4.77226
LJ           3.14643         2.09546            5.59
LJ          -4.16561        -1.87189         4.84942
LJ          -5.45944         1.96685         -4.1551
LJ          -0.59798       -0.322582        -3.76255
LJ           1.87571        -2.42798          1.3138
LJ           3.85724         1.71275         5.05032
LJ         0.0692802         2.40121         4.54634
LJ          -5.55241        -1.97112         2.14224
LJ           1.60264        -3.64969        0.856359
LJ          -4.02974         1.44605        -6.00735
LJ           3.25108        -1.20082         4.02704
LJ          0.366177         3.95318         4.42057
LJ          -5.00458        -1.24406         1.46055
LJ           6.08169         1.68071        -1.03792
LJ           5.94519        -5.47703        -2.76852
LJ          -2.74827        -2.12179         4.09929
LJ          -2.05545         -6.1468        -4.71022
LJ          -4.69056        -2.62886        -4.14175
LJ          -0.22551         2.08309        -2.09294
LJ          -3.71371        -1.94589          3.7175
LJ          -5.80086        -2.23699        0.631956
LJ           2.45085       -0.477356        -6.18511
LJ           6.32057        -4.62796        -3.09696
LJ          -2.30411         0.24643         -1.7798
LJ          0.199597          4.7558       -0.194491
LJ           4.72748        -5.56337         3.06818
LJ           3.20603        -3.79634        -1.18045
LJ           -3.7657        -1.26464         2.68626
LJ          -5.59319         5.17711         2.99477
LJ          -3.20599         1.08569        -4.36911
LJ         -0.519171        -4.36935         6.16692
LJ           1.50497         1.47628         5.99648
LJ          -2.84781         4.22802       -0.786391
LJ          -0.22434         4.63522         3.98311
LJ           6.09116          4.9317        -2.39602
LJ         -0.845626        0.682599        -3.62827
LJ           5.68248        -1.44335         -5.7024
LJ          0.739845        -5.34177         3.05933
LJ           1.09933         5.97829         0.42863
LJ          -1.26236          -3.652         1.13404
LJ          0.497512         -5.0414       -0.427746
LJ           1.63369         4.74354        -5.50735
LJ           1.43642         6.38295        -4.64474
LJ          -2.14318          5.0758         5.17132
LJ           3.61239         6.10482         5.00716
LJ           4.46339        -1.02058       -0.737124
LJ           2.45831        -3.37036          1.0957
LJ           4.60761         1.10645       -0.377486
LJ           -5.2806         5.77943        -2.30251
LJ          -4.51529        -3.60039        -0.43207
LJ           5.95258         1.78007        -2.72279
LJ          -1.05249        -4.92296         -6.3233
LJ           1.79281         3.59525         -2.6787
LJ          -5.08501        -4.29713         1.78646
LJ          0.468228         -5.3075         3.55419
LJ           1.71391       -0.225287         4.23072
LJ          -2.74345         1.95585         1.98998
LJ          -3.59751         4.60348        -2.61015
LJ          -2.44058         3.08045        0.607093
LJ           4.62994        0.155837         1.88845
LJ           3.40887        0.853358        -1.31979
LJ           4.35871        -3.33463        -2.23223
LJ           2.03839         4.17031       -0.427037
LJ           -1.2155        -4.19023         5.57992
LJ           2.48943         -2.9462        -5.91182
LJ           4.95495        -4.85725        -4.10855
LJ           4.94567         3.09467         2.82498
LJ          -1.83101         2.96328         4.68196
LJ           5.17072        -1.31033         4.73164
LJ        -0.0519985         2.25648         -1.6756
LJ            -2.823         2.35821         1.15166
LJ           6.44265        0.204417        0.533102
LJ          0.594422        -3.78427        0.267705
LJ          0.397498        -5.49329        -5.68059
LJ           4.58473         2.75953        -5.34932
LJ           1.14154         4.20375        -1.92562
LJ           4.48489         6.35061        -2.74658
LJ          -5.47111         5.42781         1.83798
LJ           1.12587         2.84825         3.93849
LJ          -4.46928        0.675164         3.59089
LJ          -4.02407        0.762521        -1.56339
LJ          -2.13154         3.85943         5.77426
LJ           3.01865         -4.7902          1.7828
LJ          -6.18274         5.94647         5.30328
LJ          0.876789        -1.62089         0.42305
LJ           1.34464         1.07343         5.45935
LJ           4.99713        -5.39882        -3.30499
LJ         -0.267948        -1.43714        0.036216
LJ          -4.30147        -3.63549        -1.28993
LJ          0.159013       -0.422714         1.94236
LJ           2.23996         5.98176        -5.72107
LJ           2.48108         1.72136        0.084936
LJ           4.91017         2.82131        -2.15435
LJ           3.72823         -3.1179       -0.639001
LJ            4.7189       -0.844948         4.06593
LJ           3.54339         5.49674         2.80258
LJ            4.6939         2.33923         5.74169
LJ           5.05485        -4.12063        -2.21936
LJ         -0.602339         3.51649        -4.57421
LJ         -0.132511        -4.45818        -1.39179
LJ          0.121113         3.27959         4.59092
LJ          -4.23401         5.49406        -6.06045
