108
#Comment!
LJ           4.15197         4.97768        -4.26153
LJ          -4.54971         0.42334        -4.07071
LJ          -4.22785        -1.12419       0.0118569
LJ            1.7814         6.41995         3.63961
LJ         -0.685517        -1.36629        -4.11703
LJ           5.00881         6.21248         3.34982
LJ         -0.815077        -2.46787         1.17561
LJ          0.216103       -0.346463        -3.41019
LJ          -5.61108        -3.00155        -6.13823
LJ           1.27878        -3.22558        -4.42517
LJ           2.66212         5.66323        -5.71548
LJ            5.0954        -5.42069        -1.62448
LJ          -5.55295       -0.883218       -0.606735
LJ         -0.302412         4.35727        -4.24513
LJ         -0.970388         2.24478        -1.48101
LJ          -4.20096          4.2391        0.227596
LJ           1.78372        -1.43365        -4.04358
LJ          0.227597        -1.41815        -6.09222
LJ          -2.27696       -0.713626        -2.04807
LJ           2.44891        0.128216       -0.276975
LJ          0.198462        -3.59579        -4.17026
LJ           1.89511        -2.28633        -6.28489
LJ           3.93693         1.97872         2.53074
LJ          -5.80068        0.601759         3.00772
LJ           6.18626       -0.256129         6.45759
LJ          -4.40132       -0.959565        -6.19367
LJ          -5.28617       -0.190109         -6.1655
LJ          -2.00875         3.20168        -6.19953
LJ           5.73757         1.79073          5.3065
LJ           5.58718         3.79648         3.41744
LJ         -0.581373         3.86412        -3.28927
LJ           1.93203        -2.35514        -5.24377
LJ           4.62942        0.368278        -5.40235
LJ         -0.379962         3.74747        -5.13631
LJ           1.69726        -4.09929        -4.91815
LJ            3.5802      0.00387638        -1.89212
LJ          -2.02247         5.43273         3.44925
LJ          0.112177        -1.49717       -0.133828
LJ           -2.0159          3.9041         1.17079
LJ          -3.67198       -0.267661       -0.381482
LJ           1.65303          -1.911         -0.7103
LJ          -3.96374        -2.09736        -4.95246
LJ          -5.55457         6.40233         1.09986
LJ         -0.803763        -3.33069        0.122959
LJ         -0.172052        -2.46613       -0.753865
LJ          -5.24151         1.39603         2.01614
LJ           2.81829       -0.555913        -2.39729
LJ          -2.49988        -2.32771        0.258516
LJ          -6.39288        -2.60734        -3.99076
LJ          -5.83921        0.215427       -0.812613
LJ             6.417         1.84407         2.07966
LJ           3.79723         1.74095         3.67913
LJ           3.04013          3.2564         6.41299
LJ          -3.96421         3.30656       -0.163582
LJ         -0.979218         3.01786        -2.48401
LJ         -0.629044        -2.77978         5.13869
LJ          -1.52132        -1.31687        -5.52078
LJ           5.46241         1.22242        -3.06281
LJ          -3.38039        -3.97399        0.839113
LJ          -4.63435       -0.483894       -0.981497
LJ          -4.55811         5.91992         4.50979
LJ          -2.12998          4.0249        -5.29223
LJ           3.24406        -5.04401       -0.810803
LJ          -4.52889        0.878822       -0.522336
LJ          -3.52051         2.60433        0.586467
LJ          0.381829         5.33905         2.12806
LJ          -2.85937         -4.5782        -1.08076
LJ           2.08494        0.586959        0.663623
LJ           2.71571        -1.68558       0.0341114
LJ           1.68023          4.4671         1.99946
LJ          -1.34093        0.910695         1.72355
LJ           1.98565        -4.12866        0.183953
LJ          -1.02215        -1.69037        0.347097
LJ          -1.48584        -0.94795         1.20018
LJ          -4.19445         2.61917         4.14735
LJ          -4.41175          -6.261        0.385279
LJ          -6.38068        -6.15518         6.23881
LJ          -1.75539        -3.15802         1.00767
LJ           1.27469        -4.68515         5.87379
LJ          0.856891        -3.33033         1.03077
LJ          0.489965         3.64427         3.75449
LJ           3.77071       -0.963637        -2.12364
LJ           1.86369        -3.00918        -1.14879
LJ           0.46494        -3.23693         2.02481
LJ          -5.26567         -4.1591        -1.72387
LJ          -4.82854         1.00572        0.812177
LJ          0.429353         1.04563        0.906661
LJ          -1.39427       -0.874284        -1.29183
LJ           6.00322      -0.0716384       -0.449963
LJ         -0.309085        -1.94051         4.22641
LJ          0.334817         -2.0545         3.28224
LJ           5.17362       -0.550806        -3.48485
LJ           1.04704        0.541313        -1.42465
LJ           3.24647         2.13913        -1.69512
LJ           4.83932         3.34233        0.276522
LJ           2.86535       -0.383389        0.654551
LJ          -5.27519         0.25916        0.149742
LJ          -3.30531         2.12377       -0.682733
LJ         -0.101126        -2.37516        -3.77613
LJ          -4.01245         3.13551        -1.29763
LJ          -1.31704        0.254241         2.63332
LJ           2.47843        -5.31822       -0.280836
LJ          0.709689        -1.08873         3.82251
LJ        -0.0571514        0.647588         2.17306
LJ           3.90355        0.319202           1.607
LJ           2.95799         1.09222         1.82219
LJ           3.46215         1.33225        -2.51892
LJ           4.00182        0.921647          2.5624
