108
#Comment!
LJ          0.676046         1.17192        -4.04306
LJ          -6.18015        0.393215        -5.35056
LJ           6.25175       -0.272124       0.0709914
LJ           3.75049         5.21008        -4.91512
LJ           4.35987         0.67565        -1.30195
LJ          -6.44495         2.18074         1.12316
LJ         -0.797652        -1.62948         1.10586
LJ           1.80786       -0.508005        -3.82449
LJ          -3.80211         -6.3038         5.13048
LJ          -1.92299        -4.24814        -5.00529
LJ           1.51351         3.63023        -5.59614
LJ          -5.28583         5.86327        -1.45911
LJ           3.84427        -1.81584       -0.119141
LJ          0.219159        -6.21067        -5.51182
LJ         -0.437868         5.18309        -3.20002
LJ          -4.45951         1.55761         2.31002
LJ           5.61673        -1.37863        -4.64078
LJ         0.0316036        -1.69119         5.61625
LJ          -2.92605       -0.974025        -2.46264
LJ           4.66074        -1.20297         1.93267
LJ          -1.03524        -3.56508        -4.75028
LJ           2.13053         -4.6147         4.02034
LJ           4.62602         2.98326         2.98154
LJ          -2.61058         4.21167         3.37865
LJ          -5.75045        0.566579         3.38183
LJ          -5.89814        -1.93878         4.23149
LJ          -6.40133         -2.9499         4.23173
LJ          -3.62285         2.70818         4.75483
LJ           2.27048         2.10155         3.96619
LJ           1.59358        -5.63666        0.544319
LJ          0.645707         5.07966        -4.01703
LJ            2.9345        -4.78476         5.06075
LJ           5.29586         2.85072         5.68652
LJ         -0.310254        -6.40148        -4.62913
LJ           5.94178       -0.624813         3.90812
LJ           3.14514       -0.910986        0.176849
LJ          -2.57236        -6.28932          6.0074
LJ         0.0799883       -0.781422         1.49188
LJ          -2.22885          0.1165         1.39832
LJ          -5.46565         1.91687       -0.689958
LJ           3.61954        -1.39506       -0.990525
LJ           6.15207        -2.81872         6.20219
LJ          -4.65638         2.65183        -0.64404
LJ          -1.68694        -2.64733         1.75814
LJ          0.827373        -2.26362         1.21641
LJ          -4.72756         1.97628         3.77623
LJ           5.06047        -0.63083        -2.53296
LJ          -2.98128        -2.64473        -2.91186
LJ           4.37068        -3.94562        -5.40706
LJ           4.69609        0.316543     -0.00420938
LJ          -4.53423      0.00607736         2.11847
LJ          0.511834         2.26753        -5.21478
LJ           5.47896        -1.52985         3.13195
LJ           4.77884         1.31732        0.304537
LJ         -0.755916         4.42733        -2.58289
LJ           -1.3794        -3.40425         6.13652
LJ          -3.34046         0.83647        -3.10445
LJ          -5.75872         1.99512        -3.84052
LJ          -4.67687        -5.86457         2.85103
LJ           4.78069         -0.7155       -0.208371
LJ          -4.56988        -4.13309         5.30436
LJ           -2.3194         5.42432         5.80271
LJ           4.87021        -1.01033        -3.71825
LJ           -4.8068         1.26658         1.11087
LJ          -4.55039          3.9218       0.0912523
LJ           2.52989        -5.56613         5.54421
LJ          -4.05115        0.250984       -0.552915
LJ           2.75853         2.32575         2.70248
LJ           2.90728        -2.07822        -1.50254
LJ           3.61218         3.05115          2.5682
LJ          -1.59406        0.789811         2.69675
LJ           1.43269        -1.18684      0.00200913
LJ          -2.05032        -2.94575       -0.591425
LJ          -1.65286        -2.09574        0.235021
LJ          -5.49838         4.72479         4.61011
LJ           6.05465         3.79862         1.13344
LJ         -0.937245         6.15083        -3.28906
LJ          -1.42976         -2.5341          2.8207
LJ           2.48149         6.17955        -5.39133
LJ          -1.56449        -3.54115         2.48261
LJ           0.24769        -0.10658         4.68712
LJ           3.78925         -3.0559        -1.97286
LJ           1.93288        -1.33863        -1.38394
LJ         -0.755749        -1.92497         2.17328
LJ           5.86937        -5.13656        -3.38866
LJ          -5.60798         1.33891         2.02491
LJ           0.65798        0.805746         2.45973
LJ         -0.538226       -0.548179        -2.86855
LJ           4.48069        -1.51671        -1.63723
LJ          0.149281        -5.26953         6.01051
LJ           3.54928        -5.30046         4.45938
LJ           6.27271        0.380847        -1.09003
LJ           2.44274          2.7601        -2.43717
LJ           3.05626         3.40732      -0.0423753
LJ          -6.02198         4.05714         -1.2094
LJ           3.87449        -2.44406        -1.09331
LJ          -5.76577         0.82815        0.653156
LJ          -4.81329         4.45926        -1.69918
LJ         -0.972933        -2.49873       -0.458771
LJ          -4.68946         3.53304        -2.20414
LJ         -0.672838         1.09068         1.77176
LJ           1.96631        -2.07456       -0.220152
LJ           1.94008       -0.434306          5.6701
LJ         -0.406275         1.37511         0.58499
LJ           4.29777        0.696619         2.02333
LJ           4.18542         1.61529         1.39956
LJ           5.97252       -0.193462        -2.75767
LJ           4.30591         1.70924         2.68204
