108
#Comment!
LJ           1.02579      -0.0709586        -3.20324
LJ           4.62732        -1.23194         1.82058
LJ           2.47253       -0.656609         1.23617
LJ           4.96427         3.51768         1.38321
LJ           -3.2247        -4.70609         5.91449
LJ           3.50713         5.64222        0.513045
LJ          -2.37925        -1.19734         4.19822
LJ           4.74601        -1.86615        -3.57977
LJ         -0.714524         5.09026         1.49586
LJ          -3.55411        0.412087        -5.81603
LJ          -4.32228       -0.794648         -5.3509
LJ          -3.75127         1.99813       -0.575977
LJ          0.789065         4.70304        -1.11895
LJ          -4.45699        0.295915        0.781991
LJ           -2.5158        0.838762        -5.54347
LJ          -1.26344        -3.62049         1.85909
LJ          0.546606        -4.70425         6.02569
LJ          -1.14085         3.15967        -4.59562
LJ          -3.49898         -2.6502         5.73658
LJ          -3.60046           2.109        -5.00854
LJ          -1.99583         1.16617         2.37891
LJ            4.2992         5.75922         1.80879
LJ          -6.06223        0.863919        -4.66847
LJ           1.20667        -4.94055         3.38414
LJ          -2.16473        -3.53488        0.627442
LJ           5.63533        -5.44761        -2.75106
LJ          -5.44368         4.49561        -2.13288
LJ          -5.94056        -1.29005        -4.20237
LJ           1.09467        -5.44632        0.665698
LJ           1.90622      -0.0591808         4.74041
LJ           1.79437         3.95395        -3.60565
LJ           3.96121         6.43344      -0.0891146
LJ           5.86397        -2.18455         4.25308
LJ           3.30805        -2.43325       -0.911647
LJ           5.35644         5.26574         1.15288
LJ          -0.62792        -1.06453         6.17728
LJ          -2.30317         5.98733         4.42149
LJ          -4.33496       -0.404248         1.76261
LJ          -2.22443         -1.1939         5.99206
LJ          -6.03059         4.48905      -0.0267256
LJ           3.05865         -3.0869        -3.10217
LJ          -1.31056        -5.47581          4.5664
LJ          0.868274        -3.96059        -2.49448
LJ          -4.75336        0.475092         2.35341
LJ          -5.97272         5.87157        -5.76492
LJ           5.02767         1.72788        0.821515
LJ          -5.38414        -3.08697       -0.565893
LJ          -2.57092        0.663636         5.95523
LJ           1.06089       -0.904984         5.34985
LJ           5.87182        -1.42159        -1.98095
LJ          -1.31923        -3.77489       -0.336774
LJ          -1.88807        -4.77181        -3.35053
LJ          -2.03586         2.87812        -2.12453
LJ           3.19794         5.21662       -0.951789
LJ           3.15942         6.23397        -2.74199
LJ          -5.53895         4.71018         5.36927
LJ           2.50027         3.38531        -4.41794
LJ           -4.0242          5.5409        -1.52826
LJ           1.33785        -3.40007        -0.33452
LJ           6.45463         5.04633        -1.07471
LJ         -0.129997        0.325897         4.80184
LJ          -3.30958         3.93692         3.58845
LJ          -5.30952         5.76665         5.66384
LJ           3.52537        -6.30762          1.5226
LJ           6.13359        -4.88462         3.08555
LJ           3.34313        -5.18873        -2.77646
LJ           3.79528         -1.9587        -2.21413
LJ           1.02619         2.27011         -2.6436
LJ           5.00884        -1.55844         -2.6436
LJ          0.663438          3.9787          3.5335
LJ          -2.47166        0.303775          1.2875
LJ          -4.77644        -1.10091         3.94797
LJ          -6.30941        -2.55144        -1.18545
LJ         -0.333143        -4.18983        -5.59463
LJ          -3.68857        -1.69389        -3.84719
LJ           2.47755        0.207494        -2.77869
LJ           6.19161         5.72235        -4.04029
LJ          -1.16038        -1.32302         5.03322
LJ          -4.53875        -6.32428        -4.51313
LJ          -1.66277        -4.08454        -4.80937
LJ         -0.264918        -1.16774        -3.28315
LJ           5.41693       -0.842756        -3.51218
LJ           3.18655         1.09326        -2.08721
LJ          -2.94368       -0.612144         5.11518
LJ         -0.813411         4.24074         5.64015
LJ           -3.4781       -0.465856       -0.528151
LJ          -2.15482       -0.351193         2.27113
LJ          -6.40671         1.94902         5.03942
LJ           4.44521       -0.655789        -1.80866
LJ          0.709383         4.58222        -2.18939
LJ          -4.62918         3.63008         4.48659
LJ           5.75732        0.197232        -2.80539
LJ           -1.9561         4.98019        -5.98506
LJ           2.19349          1.7912         2.24072
LJ           -3.3717        -5.77914        -5.03885
LJ           5.11901        -1.74251        -1.27384
LJ           -1.3006        -1.30001         3.88007
LJ        -0.0869663           -3.57         1.88309
LJ         -0.248713        -5.80174          6.2301
LJ           5.55778         4.61572        -1.11062
LJ          -3.51049        0.810281         1.48112
LJ           3.46914        0.292628        0.258991
LJ           4.23179         1.28574        -2.64134
LJ          -2.33528       -0.245325        0.183843
LJ          -5.70962         3.54469        0.875178
LJ           4.53028         2.45821         2.07903
LJ         -0.676247        -4.68414        -1.39268
LJ          -5.88858         1.24173        -5.75821
