108
#Comment!
LJ          0.405608        -3.71636         6.42872
LJ           6.43525         1.00149        -5.55388
LJ           1.93127        -3.64063        -4.31003
LJ           2.63466        -5.19557         1.32257
LJ           5.16035         5.96652         2.54356
LJ          -3.27898         2.97749        0.637957
LJ           3.83827         2.00239        -2.05299
LJ          0.841003        -1.24626         5.59247
LJ          -1.55029        -2.74601        -4.33487
LJ           2.76416       -0.565174        0.935322
LJ            5.8998       0.0436941        -1.45726
LJ           1.19678        -4.21297         3.73581
LJ           3.94216         5.51824         3.15138
LJ           6.03821         3.66242        -3.82764
LJ          -4.77418        -6.24157        -5.99062
LJ          -1.35224       -0.146195        -2.73958
LJ          -1.08391         2.33398        -3.19167
LJ          -1.78476        -0.52991        -1.39518
LJ           6.25502        -5.25041         4.82097
LJ          -1.93128        -4.09286        -3.83745
LJ          -4.45522        -3.66692         2.89903
LJ           6.28438       -0.873114        -4.25257
LJ           2.22535           2.202          1.8282
LJ          0.785854         5.58638        0.772573
LJ          0.464901        -2.36781          6.2659
LJ           4.48249        -3.33805        -4.22303
LJ           4.06932        -5.17047         1.79228
LJ          -2.85976          3.6692        -3.22595
LJ           2.67769        -2.17428         2.72113
LJ           3.14618        -3.52681        0.113925
LJ           4.54143        -4.80939         5.52462
LJ          -4.54225         3.91389        -2.76722
LJ            2.9641         3.08511         1.71941
LJ           1.52123        -1.46935         2.27762
LJ          -1.35944         -4.6413         2.71409
LJ           2.13372         4.10866         3.48736
LJ          -2.53129         4.63746            3.15
LJ           6.45687         1.07466         3.38011
LJ          -3.15059        -3.95715        0.842192
LJ          -5.50642        -3.33521         3.29114
LJ           1.79451         5.81393         5.26864
LJ           2.74448        -2.32376          2.9687
LJ          -1.27983         3.60319        -2.40246
LJ           5.70852        -2.13944         2.06694
LJ            6.4269        -3.74946        -6.00651
LJ           2.41146         4.94561         4.57357
LJ           1.03123         4.27692        -3.37421
LJ          -3.50342       -0.750458        -6.12573
LJ           4.54542         5.40841         0.12969
LJ          0.842491         3.76664         5.94179
LJ           5.30066         5.40543         3.87756
LJ          -6.37985         -3.7901        -1.94205
LJ          0.635139        -4.34273         6.05566
LJ          -6.14774        -3.07708         2.20976
LJ           -1.2475        -4.91594        0.334319
LJ           1.32217         1.16072        -4.12689
LJ          -1.91637         4.28565        -2.69195
LJ          -1.16932        -6.08255        -1.38236
LJ           1.37749          6.1727         2.50791
LJ          -2.24608         5.33969      -0.0712539
LJ           5.68131        -2.02056        -2.34041
LJ          -3.10082         -5.0298        -2.45855
LJ          -5.69481         -1.6354          2.5473
LJ           2.80345         4.11507         3.55821
LJ         -0.898271        -5.67181         3.46089
LJ          -2.97541        -4.00637         3.47206
LJ          -2.32672        -1.72961          4.6042
LJ           4.32308         -6.0092          1.9372
LJ           -5.0711         -5.9494        -1.29421
LJ           6.12628        -5.06593         1.43607
LJ           5.55092        -4.07098        -5.00476
LJ           3.57031        -1.55672        -1.83531
LJ          -5.47323        -1.30126        -2.32453
LJ            3.5723        -5.45121        0.257607
LJ         -0.501232        -0.61979         2.39051
LJ           2.64797         1.70629        -4.54604
LJ           -3.5825        -4.00726        -3.99594
LJ          -4.63021        0.164065         3.32231
LJ           1.11711         3.66376         2.40196
LJ           1.92494       0.0625436        -4.72975
LJ           1.63819        -0.94279        -4.96045
LJ           1.84426         -2.0588       -0.407806
LJ           2.19984        -5.38239          3.8612
LJ           4.98268        -3.50929         3.21366
LJ           2.47196       -0.177727        -5.68579
LJ           -1.9076        -2.27266        0.103636
LJ           0.21642         4.14198         2.58373
LJ         -0.454064        -1.61743         2.71313
LJ          -4.73234         -1.4114         1.88888
LJ           2.51183        -4.28453        -4.14597
LJ         -0.817386         4.27355        -1.77128
LJ           2.34321         3.70813         1.16954
LJ          -4.44178         6.09799         3.79047
LJ           5.31958         1.79671         2.84796
LJ           3.93623         2.66276         4.26756
LJ          0.294795         5.22887        0.891172
LJ          -2.81195        -1.47003        -1.33117
LJ            1.0165       -0.243464        -5.08094
LJ          -4.15918      -0.0785969         6.16307
LJ          -1.44234         2.21776         4.39712
LJ          -6.07636        -0.79328        -1.07871
LJ            3.5915        -6.29011         4.90344
LJ           1.63328        0.954132         6.21849
LJ           4.78717        0.908001         3.93923
LJ          -1.50929         2.30597        -1.48454
LJ          -1.48637         1.60982         4.73063
LJ          -3.18418        -1.53292        0.145361
LJ           3.72057         2.60191         3.94184
