108
#Comment!
LJ  0.15696139290725714   0.014136970103764853   -0.24933105211429815
LJ  0.3771030060668128   -0.079030819756521806   -0.033453343810556375
LJ  0.10773275411135319   -0.10755431910364099   0.12017373351854502
LJ  0.3971638642930676   0.35492140269822586   0.19171980294657881
LJ  -0.16541455785598502   -0.28943348417249937   0.31714457452135919
LJ  0.24570109670848972   0.47974089296737071   0.061846743348023224
LJ  -0.10497135475990102   -0.072278257355285397   0.41209278833126051
LJ  0.43429366091107996   -0.14722677863436154   -0.23164348446842409
LJ  0.10746075629549054   -0.3891837572742578   0.061889633360839059
LJ  -0.38910156379659894   -0.02719870873660675   -0.41717334710257648
LJ  -0.47095472677111583   -0.070030428094378233   -0.47822791449013419
LJ  -0.31890132278286476   0.010980607425401552   -0.14425679701528504
LJ  0.03129631819192058   0.20483386008669607   -0.19641252377689344
LJ  -0.46264944934754498   0.18301483550238204   0.10378793682374801
LJ  -0.15012708867619906   0.040647569098093833   -0.42998650097865831
LJ  -0.015384396699796363   -0.3841430123530627   0.00072498220457950177
LJ  0.13728087553119067   -0.42483348592964038   0.43290687851661519
LJ  -0.12312557895648464   0.062246046951793643   -0.31037830222712975
LJ  -0.35386675008549262   -0.15819127666224908   0.3400406717439613
LJ  -0.24794498757419692   0.011610085837564992   -0.40982147238546746
LJ  -0.18273531872819704   -0.044384748498272321   0.21244567353506069
LJ  0.31523669003027799   0.48853894063292241   0.10505267223826283
LJ  -0.39588047274973692   0.045453547714753122   -0.28199119707856579
LJ  0.10139916600496068   -0.44196992623913789   0.29849436118229289
LJ  -0.12787213142504072   -0.3735272178397489   0.16148757162733202
LJ  0.39706586839469427   -0.30729219857612855   -0.33869227192989421
LJ  -0.38623614353538993   0.23783876509001275   -0.24219623813253488
LJ  -0.4489654613470801   -0.20536844438511742   -0.32316995668984677
LJ  0.10553006941437948   -0.25414149669488079   0.0020842753319770305
LJ  0.1159426743699236   -0.037554473963196028   0.4903246064427228
LJ  0.17058704109604839   0.27209349769191793   -0.25772553813598537
LJ  0.37436545920181324   -0.42182552932633327   -0.084114630812760494
LJ  0.46141923895230758   -0.14695464032680663   0.3654440175279336
LJ  0.29816254450269603   -0.09083358748380943   -0.034863604317543317
LJ  0.32727326462473622   0.41975533362613182   0.050707352151538133
LJ  0.025764921671740337   -0.056099904648185595   0.48029746993739969
LJ  0.015901631974314677   0.44027991169465563   0.28536409707647725
LJ  -0.40206379394613118   0.020150075811529337   0.19191519989441647
LJ  -0.30539568927643024   -0.11829562282539857   0.49684251575089383
LJ  0.45885469486715608   0.35299551813686686   -0.048850888146205487
LJ  0.078406958666458221   -0.35768551512405272   -0.41530132139438997
LJ  -0.29852513188152496   0.47377445513408478   0.42529647909061324
LJ  -0.065312556401418642   -0.38572878826967899   -0.29894310671759017
LJ  -0.39936754970806615   0.038982314375591021   0.083526605915418786
LJ  -0.31419319965653464   -0.34789835746491171   -0.32866560844262604
LJ  0.41439558173477309   0.2540135539787392   0.060218643444077853
LJ  -0.46877215601026612   -0.19062510269172719   0.09270207571797856
LJ  -0.14204991489055621   0.13034055332736147   0.49788821824689
LJ  -0.020236956136715813   0.027122870076125349   0.36811393998182179
LJ  0.43531381522817114   -0.2385912369082118   -0.27992372062563836
LJ  0.0099800450225056379   -0.33889482915795499   -0.058862065315920989
LJ  -0.099817159223207108   -0.33591314111646625   -0.096849739035942448
LJ  -0.036623611394529694   0.011160355787651984   -0.12651169210070121
LJ  0.25630330691354392   0.48442637306306691   -0.08000490962959729
LJ  0.34972832174169005   -0.40707198281031981   -0.27839988407023775
LJ  0.42019409323259849   0.35428008182632198   0.39585228646266418
LJ  0.02638234902301187   0.30505158585557746   -0.35909238460661524
LJ  -0.25676147379183079   0.4707583002917044   -0.069879588586626157
LJ  0.060357368229988738   -0.17243791185267884   0.10519040481933971
LJ  0.43792355360457019   0.24474415714601319   -0.035818158768775935
LJ  0.14039266010464146   -0.0045872560427210139   0.23389881418219324
LJ  -0.25368138058860545   0.3609968743122543   0.39108836072327852
LJ  -0.49771466719843449   0.3352998761544026   0.42329484182090743
LJ  0.29925684157879784   0.44609633699626922   0.20437008944015531
LJ  -0.47293652358030475   -0.35855046759546416   0.2681055431846871
LJ  0.27454437178621027   -0.3456139192119877   -0.31908802684941501
LJ  0.34996993852307096   -0.12710704401159206   -0.18491343312756811
LJ  0.037347595919569772   0.12986065222206131   -0.062156100332785097
LJ  0.45329602882241288   -0.090509655608692702   -0.1561462911747567
LJ  -0.068596780770403765   0.3525100100245715   0.34685113342325086
LJ  -0.30039454863570741   -0.01444877499254843   0.13458951567083391
LJ  -0.43995371504964287   -0.051591408551257469   0.45478417379662223
LJ  0.49524093934369223   -0.088740103217402541   0.002021763010958032
LJ  0.13231868266954649   -0.455171266548697   -0.4718886898391072
LJ  -0.18557360275164977   -0.11286755809952131   -0.22495891287896258
LJ  0.23386507493399109   0.23273216851349121   -0.37347663537927789
LJ  -0.36577779640797181   -0.28099292641870449   -0.096321060999670527
LJ  -0.018642444130264668   -0.099784520729988807   0.40863659226119775
LJ  -0.18072962446828134   -0.47423534586603988   -0.39449004597399079
LJ  -0.0068073899958014687   -0.21943464101519319   -0.47465750439348686
LJ  -0.13475624431406391   -0.18376891293783879   -0.15243802371050627
LJ  0.4772744345128519   -0.010280231698758418   -0.16587618110829966
LJ  0.24637779721668485   0.26406863605368619   -0.29573640531733097
LJ  -0.28736751179066844   -0.018402779144673632   0.28716807651176945
LJ  -0.20668175520471377   0.28493530810776091   0.3593756449663682
LJ  -0.30128351876633536   -0.036935021747841509   -0.072537433392247858
LJ  -0.24281063532682515   -0.090736088376723326   0.1400938555310659
LJ  0.3934481393635198   -0.018228069136790859   0.26813140307176309
LJ  0.28919367597279194   0.00044984796031050724   -0.07081028252379408
LJ  -0.037466314840922048   0.26048398495261038   -0.20563612916946716
LJ  -0.36793119672085417   0.21539622838509032   0.41996877162253349
LJ  0.38566972070471256   -0.048415996774195967   -0.20747186900849862
LJ  0.089808163773074157   0.39216901090486983   0.3928292663864863
LJ  0.20891964309904931   0.15652014613280091   0.29361625637322958
LJ  -0.20837900578374705   -0.45243348825506902   -0.49675716501598016
LJ  0.41451859612136205   -0.016128540654883682   -0.124690209518209
LJ  -0.12754819060169068   -0.01131240554910462   0.30619563877382988
LJ  -0.031272517526581368   -0.17115876050786125   -0.051880117888448776
LJ  -0.0015599026125056859   0.42059729174522653   0.37155680621288045
LJ  0.17008120894349973   0.24805291234730362   -0.029786100829024623
LJ  -0.23045097110917426   0.057460681445143769   0.23718129699010476
LJ  0.36100385532861451   -0.036221096712788496   0.07071672244378098
LJ  0.32397345813244138   0.092139075510921584   -0.090831565511446055
LJ  -0.28414169344266293   -0.060515114954694867   0.062130524167153187
LJ  -0.43209820776684327   0.35379669038788203   -0.018945339775142695
LJ  0.27761345872793136   0.15548527233876611   0.33231716949248513
LJ  0.10176482280843256   -0.45385257085825753   -0.10540893716108203
LJ  -0.46955485511589728   0.06127948306505885   -0.33305476796428002
