108
#Comment!
LJ         -0.467785         6.40455        -5.00636
LJ          -1.14494         1.13874       -0.560926
LJ          -2.04293         3.43662       -0.313457
LJ          -3.50386        -3.22746         5.37627
LJ          0.894266         1.62954         4.11657
LJ           3.08312        -4.06684         1.69016
LJ          -4.91851         2.57828         2.12392
LJ          -2.02734         2.47197       0.0557342
LJ             1.972          3.6249       -0.319354
LJ           2.10157         2.79093       -0.897801
LJ           -3.9709        -5.51068        -2.60701
LJ           3.29882        -1.37292        -2.07005
LJ           -2.5808        -2.93364        -1.79173
LJ          -1.75924        -3.22696         1.14428
LJ          -3.26179         -2.1618         1.62126
LJ          -3.72576        -2.35033         -5.7327
LJ          -2.21838          3.8932          3.2057
LJ          0.393423         3.21847        -4.54417
LJ           5.18491        -3.33946         4.37112
LJ           4.13408        -2.32129         2.81469
LJ           3.09435         5.23059        -2.75852
LJ          -4.62795        -2.28177        -1.98009
LJ            2.7198        -4.46305         1.26453
LJ           6.35191       -0.373881         4.60688
LJ          -6.17836        -5.88188        0.363997
LJ           0.55088         1.07404         -4.0117
LJ           4.75599         3.32348         3.12315
LJ           1.88906        -1.98342        -2.22061
LJ          -4.02763        -2.20112       -0.895896
LJ           5.73887        -4.43711         2.13809
LJ           5.63628        -1.75508        -5.07438
LJ          -5.95435        -2.91075      -0.0973726
LJ          -1.45887        -2.01449        -2.06626
LJ           2.04513        -2.79231         2.88264
LJ         -0.662286          1.2996         5.26148
LJ           4.69051          1.1855        -4.68296
LJ          -3.89536         3.25667          4.2577
LJ           1.21304         6.31887        -6.19828
LJ          -1.21815       -0.480474       -0.588315
LJ        -0.0464667        -6.22071        -3.01759
LJ           -5.5843        -1.08097         -1.1285
LJ           3.24782        -5.15012        -3.12792
LJ           6.35907         2.19295         5.72388
LJ            3.4073         4.14874         5.00154
LJ           -1.3328        0.257647        -1.55701
LJ          -6.26025        -1.99975        -4.59121
LJ          -3.49647         -5.6007         2.07769
LJ          -4.04188         3.69674       -0.903903
LJ          -5.97537         3.31049        -1.57287
LJ           5.52986       -0.621275        -4.56465
LJ           2.20264         2.88085        -4.55559
LJ          -2.46338        -5.24373        -1.54924
LJ          0.998004        -4.35644        -1.34311
LJ           1.66599        -5.55384        -5.70106
LJ           -2.9807        0.287471        -3.62699
LJ          0.554115         5.39362        -5.21728
LJ           1.68365         -0.7665         3.36191
LJ           6.32951       -0.488713        0.263757
LJ          -3.09458         5.46475         1.24048
LJ         -0.271355         3.98821        -1.41568
LJ          -1.34216        -1.43403        -4.44979
LJ           4.26053        -1.15975        -3.63128
LJ          0.308827         3.02641        -2.91651
LJ          -1.26627         -5.0305          3.8525
LJ           5.31394        0.741006        -3.37523
LJ         -0.642518        -1.75277        0.158487
LJ           3.35125         3.76049         2.32137
LJ         -0.293567         6.13906        -3.91492
LJ           1.87994         2.46775        -1.39065
LJ          -3.94173         3.56458         6.04269
LJ            5.6628        -4.36039         5.37365
LJ           4.02445        -3.03468         5.62939
LJ           5.78418        -2.89841        -6.42093
LJ           6.38732        -3.59326         1.29291
LJ          -4.14115         3.05194        -4.75413
LJ         -0.192928       -0.675817         2.16165
LJ          -4.85946          1.8426        -2.13102
LJ          -4.27153         1.28503         5.87403
LJ        -0.0526251         4.69752         4.39803
LJ          0.600774         4.52946        -4.97968
LJ         -0.458826        0.727461        -4.57747
LJ           4.44732          2.7174         4.80802
LJ           2.51473        -1.90356         -4.9986
LJ          -1.84143        0.733295        -1.18794
LJ          -1.65091        0.427984        -2.23475
LJ           5.15171        -5.90507         5.01787
LJ          -5.69309         4.52807         5.76036
LJ           5.02438         2.96423        -4.14997
LJ          0.915877        -4.65105       -0.251368
LJ           2.21473         2.35409        -5.66066
LJ          0.908518        -6.22524         2.17888
LJ            4.7404         2.59867        -5.75248
LJ           4.54066         -3.6427       -0.138366
LJ          -4.39756       -0.703994        -5.75286
LJ            6.4317        -5.80118         2.26457
LJ          -2.20997        -5.75857         -3.4645
LJ           2.69114        -3.43096        -2.57081
LJ           -1.4117       -0.604981         4.35413
LJ           3.76781         3.38291       -0.925174
LJ          -0.65447         3.36206        -1.28008
LJ           5.53857        -6.12494         6.17976
LJ           -3.4141         2.74147         1.95236
LJ          -5.88554        -5.98998        -6.04496
LJ          -1.59512         4.13426         3.36382
LJ           -1.6683        0.584675         1.16039
LJ          0.739978         3.84557        -5.69447
LJ           6.03562      -0.0320204        -1.14037
LJ           -4.9762        -5.80569        -2.29316
