108
#Comment!
LJ           1.18589      -0.0422953        -3.20966
LJ            4.7121        -1.24108         1.42501
LJ           2.26992       -0.785377          1.3052
LJ           5.00779         3.72842         1.61698
LJ          -3.02938        -4.51609         5.58105
LJ           3.34955         5.83674        0.740796
LJ          -2.28388        -1.26527         4.40418
LJ           4.80686        -1.89222        -3.52908
LJ         -0.322268         5.60062         1.37072
LJ          -3.86234        0.274616        -5.79586
LJ          -4.67519       -0.865153        -5.48747
LJ          -3.82203         1.67966       -0.820142
LJ          0.782472         4.31364        -1.26658
LJ          -4.55712        0.836343        0.907679
LJ          -2.33118         0.79209        -5.57718
LJ          -1.13135        -3.94097         1.57118
LJ          0.802852        -4.83681         5.97936
LJ          -1.21787         2.73259        -4.48042
LJ          -3.71443        -2.56545         5.48022
LJ           -3.4958         1.50954        -4.78711
LJ          -1.96259        0.930761         2.49024
LJ           4.46077         5.87334         1.73469
LJ          -5.87037        0.829504        -4.47266
LJ           1.22876        -5.08177         3.46827
LJ          -2.11738        -3.77187         0.91729
LJ           5.54863        -5.16128        -3.06003
LJ          -5.35082         4.22623        -2.33171
LJ           -6.1129        -1.38365        -4.00168
LJ           1.17025        -5.07668        0.547456
LJ           1.94945       -0.110204         5.04021
LJ           1.90359         3.89802        -3.51593
LJ           4.16403        -6.24455       -0.304234
LJ           5.95381         -2.4981         4.17767
LJ           3.34804        -2.25107       -0.784971
LJ           5.17555          5.2972         1.04243
LJ         -0.446797        -0.99525         5.89614
LJ          -1.84314          5.9029         4.22547
LJ          -4.26054       -0.335986         1.90255
LJ          -2.53549        -1.27647         6.13958
LJ          -6.12824         4.52801     0.000300014
LJ            2.5194        -3.41334        -3.48278
LJ          -1.78961        -5.68796         4.74352
LJ          0.745379        -4.18079        -3.12119
LJ          -5.06356         0.50792         2.20683
LJ           -5.5044         6.31268        -5.45978
LJ           4.91547          2.0836         1.21589
LJ          -5.45306        -3.02973       -0.182895
LJ          -2.42175        0.864591         6.03326
LJ          0.720011        -0.68825         5.29619
LJ           6.07376        -1.88122        -2.30288
LJ           -1.0592        -3.85765       -0.458501
LJ          -1.79532        -4.69627        -2.97166
LJ          -1.75339         2.36861        -2.03248
LJ           3.18832         5.39186        -1.00727
LJ           3.39257           6.437        -2.90669
LJ           -6.0093         4.57287         5.26687
LJ           2.07062         3.48465        -4.51933
LJ          -3.88907         5.64464        -1.41091
LJ           1.21493        -3.15933      -0.0342631
LJ           6.26363         4.65457        -1.10243
LJ          0.199426        0.252795         4.52053
LJ           -3.4861         3.95837         3.94781
LJ           -5.4205         5.61968         5.67978
LJ           3.41929         6.39053         1.63545
LJ           6.18465        -4.47518         3.31822
LJ           3.38743        -5.01046        -3.01995
LJ           4.11328        -1.82376        -2.19971
LJ           0.92795         2.13787        -2.29084
LJ           4.92522        -1.28813        -2.55249
LJ          0.384803          4.0598         3.69972
LJ          -2.72974        0.105884         1.39587
LJ          -4.97036        -1.01731         4.29614
LJ          -6.34774        -2.26664       -0.963415
LJ         0.0351314        -4.41887        -5.39513
LJ          -3.49825        -1.38167         -3.8622
LJ           2.59755        0.733517        -3.17475
LJ          -6.35335         6.37125        -3.51763
LJ         -0.915407        -1.28522         5.04023
LJ          -4.20484        -6.24015        -4.65293
LJ          -1.40439        -3.83563        -5.05293
LJ         -0.540303        -1.39366        -3.03912
LJ           5.71314       -0.835774        -3.36155
LJ           3.14792         1.53555        -2.42188
LJ          -3.17905       -0.460182         4.86087
LJ          -1.16577         4.11189         5.43552
LJ          -3.45857       -0.477205       -0.550939
LJ          -2.34838       -0.563607         2.16027
LJ           6.25339          1.5439         4.74892
LJ           4.43867       -0.679804        -1.81871
LJ           0.40474         4.39738        -2.38179
LJ          -4.46743         3.56576         4.55699
LJ           5.58047        0.104465        -2.83652
LJ          -1.35758          4.9745        -6.26201
LJ           2.25904         1.83345         2.52626
LJ          -3.28426        -5.80293        -5.27299
LJ           5.02802        -1.50127          -1.265
LJ          -1.19248        -1.09916         4.08123
LJ        -0.0564632        -3.24128         1.42611
LJ         -0.226909         -6.0866         5.97501
LJ           4.89594         4.33227       -0.979565
LJ          -3.68625        0.773398         1.64937
LJ           3.66503        0.209938        0.397709
LJ           4.27769         1.30217        -2.34435
LJ          -2.68875       -0.365706        0.163736
LJ          -5.66408         3.76157        0.659185
LJ           4.54337         2.25022         2.09668
LJ         -0.285707        -4.93955        -1.41014
LJ          -5.95403         1.17242        -5.49124
