108
#Comment!
LJ            1.4074        -6.21548        -3.43408
LJ           1.19938        -6.38798        -3.92388
LJ          -5.20552         5.69167         3.62852
LJ           2.48529          3.3484         6.19275
LJ           4.35277        -4.33283        -2.56523
LJ           3.83407        -5.70609        -6.09916
LJ           4.71038         1.69961         1.35023
LJ           6.37224         1.28057        -5.27106
LJ          -5.87369         5.64283          -1.806
LJ           -2.7473       0.0962159        -2.57363
LJ          -3.27179         3.69247         4.70687
LJ          -5.56964        -2.02147         -1.8028
LJ           3.70922       -0.172925        -4.11904
LJ           1.64204        -2.67044          3.5574
LJ           5.41017        -4.90327        -1.61411
LJ          -6.36283        -5.37172        -5.88954
LJ         -0.444545        0.853663         3.44497
LJ          -3.22396         1.07221         3.97597
LJ           5.48589         2.29156         3.43729
LJ            1.3756        -3.66669        -1.18969
LJ            2.0121        -4.03966         2.19191
LJ          -4.63463         5.59598        -2.57102
LJ          -4.14394         1.50701       -0.347513
LJ          -3.65702         4.14739       -0.753802
LJ           2.83213        0.992291        -6.08064
LJ           2.56369        -5.25183       -0.122892
LJ           5.44205         3.42767         3.64018
LJ          -3.35903        -3.58545         1.14957
LJ          -6.27539         2.84099        -1.27444
LJ          -4.72541        0.654498        -1.37232
LJ          -6.43782         2.26046         2.58438
LJ          -1.13502         2.67807         4.02058
LJ           4.47715        -3.48957        -4.15231
LJ           3.09337         1.92771        -3.28036
LJ           1.60084        -3.20298       -0.226536
LJ          -5.31962         4.27646       -0.872813
LJ          0.950961         1.46018        -4.84173
LJ          -1.09243         0.87148         3.69076
LJ         -0.991525         3.39502        -1.83821
LJ          -1.20829         2.07898         3.31445
LJ           5.77874         1.04069        -6.26606
LJ           5.67073         1.75125         2.21966
LJ          -0.93138        -2.24937        -2.95934
LJ         -0.325584         4.43956        -2.27268
LJ           5.61238         1.26593         2.63926
LJ          -3.74964          1.6061        -3.30135
LJ           6.26786         6.20255        -2.20332
LJ          -1.25941       0.0890515         3.57963
LJ           3.17456         6.23042         4.01701
LJ           5.41705         5.35039         5.07186
LJ          -3.67181        -3.76689         3.60417
LJ           2.39276         6.32163        -2.07966
LJ          -5.06213        0.794219         1.66254
LJ           2.11328        -1.38815        -6.37395
LJ           -2.2868         5.55678        -5.83955
LJ           1.53035         6.22049        -2.09559
LJ           3.97845          4.7894       -0.562413
LJ             4.333        -1.86421       -0.830806
LJ          0.773727         6.07816        -5.07427
LJ          -3.86557         5.88343        -2.42364
LJ           0.88266        -5.78226         3.67162
LJ           4.60532       -0.648436         -4.3819
LJ          0.593794         2.81359        -4.32404
LJ           1.02474        -5.82233       -0.774481
LJ           1.98744         -2.2755         1.10338
LJ           -2.3122         2.71533        -2.98611
LJ           4.73085        -4.50556        -3.34271
LJ          0.696766        0.333599        -1.23911
LJ           4.32969         6.20699         4.26676
LJ           5.64104         0.63004        -3.38561
LJ           -1.7661        -4.92817         4.38584
LJ           5.44657       0.0531045        -3.57767
LJ          -4.47037        -1.60391         5.58157
LJ          -5.39629        -5.40212         5.41762
LJ           -0.5212        -3.11559        -3.95332
LJ            2.0633         5.51932         2.77109
LJ          -3.16677         4.39864        0.355001
LJ           5.24967        -6.28374       -0.670586
LJ            1.4291        -6.10682         2.92753
LJ          -4.74561        -3.42959        -3.60039
LJ           5.19458         4.86929        -5.81454
LJ           -1.1263        -3.85889          5.8572
LJ           6.09848         4.98003        -1.34464
LJ          -3.43334         5.93296        0.101978
LJ           6.37055         5.42611         2.33248
LJ          -5.26671         4.55985         4.13423
LJ           -6.3985         -4.8057        -1.30309
LJ          -4.86626         4.47011        -1.67341
LJ          -1.86413         2.32558         6.31273
LJ            6.2047         2.96692      -0.0612406
LJ          -4.09084        -1.76008         6.20223
LJ             1.361        -3.43094         2.83723
LJ          -4.92375         4.27846            1.69
LJ          -4.51109        0.238365         6.04781
LJ          -1.09243        -1.66784         6.16898
LJ           2.90233         -1.1764         2.79426
LJ          -6.15803         4.98493        -2.61517
LJ            4.3003       -0.274551        -5.04672
LJ          0.585829         -2.7929         6.34921
LJ           5.89458         3.30856        -2.92912
LJ           1.12356         4.91173         4.41855
LJ           6.43433         3.73295        -5.90717
LJ             2.442        -2.33112         -0.5798
LJ           6.27969        -6.37424        0.711025
LJ           5.94748         4.43689         3.37058
LJ          0.440577         2.75935        -4.09679
LJ          -5.52944         1.31526        -4.95917
LJ          0.699918         2.77416        -3.46267
