108
#Comment!
LJ           5.85871           6.397        -3.90924
LJ           -3.7416        0.121972         -3.8137
LJ           -3.5141        -1.74051       -0.945023
LJ           1.13325        -6.21098         1.30113
LJ          -0.37474        -2.15073        -3.49289
LJ            3.6872        -4.99066         4.98702
LJ          -1.46612         -2.3021        0.366514
LJ         -0.342154       -0.843042        -2.99196
LJ           6.00496        -2.07425         -5.4482
LJ            1.2402        -2.69187        -3.23878
LJ           3.10562        -5.99407        -6.06703
LJ           3.80264        -4.64303        -1.61474
LJ          -4.60684       -0.376133       -0.616104
LJ          -1.35962         2.82675        -3.96283
LJ          -1.82932         1.59505        -1.71984
LJ          -3.84645        -6.12912       -0.260101
LJ          0.597784        -1.64039        -3.58746
LJ          0.528882        -1.24658        -5.25236
LJ           -1.5334        -0.59338        -1.98969
LJ           1.70696       -0.271965        -1.24945
LJ          0.699333        -3.09048         -4.1065
LJ           1.76164        -1.19899        -5.14021
LJ           3.26704           1.954          1.0014
LJ           5.51888       -0.318295         1.39747
LJ          -5.65559       -0.566505        -5.57996
LJ          -4.48275       -0.174004        -4.56032
LJ          -4.22289         0.65437        -5.39547
LJ          -1.31535         1.97402          -5.226
LJ          -5.72583         1.40373         6.01204
LJ          -5.40776         3.05659         5.54518
LJ          -1.49948         2.70988        -2.80489
LJ           1.55953       -0.992946        -4.00049
LJ            3.3365       -0.365413        -3.40086
LJ          0.156507         2.74364        -4.65726
LJ           0.50524         6.36381        -3.45463
LJ           3.43529        0.307547        -2.16748
LJ          -1.49084         5.82159         1.93545
LJ         -0.452727        -2.15588       -0.868209
LJ          -2.15316         5.55018         1.12946
LJ          -2.82748      -0.0731227       0.0358374
LJ           1.18239        -2.37262       -0.571374
LJ          -2.77142        -1.60856        -4.19559
LJ          -4.62483        -4.39883        0.934128
LJ         -0.358291        -2.89181       -0.167164
LJ           0.60091        -2.45337         -1.4412
LJ          -6.25121        0.590425         1.29251
LJ            2.4936       -0.585592        -1.98471
LJ          -1.84494        -2.31021         1.64857
LJ          -5.35818        -1.94004        -3.35591
LJ          -4.55107        0.441788        -1.31889
LJ          -6.12537         2.07708         1.51894
LJ           5.65374        0.842542         2.60842
LJ           1.91685          5.7327        -5.29877
LJ          -2.49563         3.10212       -0.473171
LJ          -0.42511          1.9824        -1.67351
LJ        -0.0349301        -2.05751         3.49173
LJ          -2.92597        -1.85372         3.77717
LJ           4.28094        0.803449        -2.37149
LJ          -2.63168         -2.7779       -0.214748
LJ          -2.72371       -0.364872        -1.04273
LJ          -4.18814         4.61301         2.91903
LJ          -2.08625         3.74685        -3.97375
LJ           4.51116         6.45133       -0.460982
LJ          -3.89398        0.205061       -0.181233
LJ          -2.96122         1.46613        0.990706
LJ        -0.0347361         4.28703        0.720533
LJ          -1.98269         6.13807       -0.866563
LJ          0.885856         1.23729        0.438012
LJ           1.74553       -0.790108        0.394958
LJ          0.298565         5.23642         1.66477
LJ         -0.312875        0.383477         1.61617
LJ           2.26991        -6.29015       -0.455054
LJ          -1.05363        -1.36549        0.767379
LJ          -1.49416       -0.703544         1.52988
LJ          -3.54566         1.51613         3.86008
LJ          -4.02385        -5.31134         0.62801
LJ           3.70867        -5.86225         6.10495
LJ          -1.97551        -3.68521        0.869245
LJ          0.880291        -3.19044         4.99372
LJ          0.937322        -2.96992        0.672553
LJ          0.649796         5.43471         3.17635
LJ           3.57816       -0.689648        -2.48256
LJ           1.90887        -3.26671       -0.222767
LJ           1.06316        -3.43982          1.6733
LJ          -4.43202         -3.7351       -0.899236
LJ          -4.08795          1.3514       0.0147168
LJ         -0.111379         1.16197        0.522782
LJ          -1.84416        -1.29821       -0.221882
LJ          -5.55459       -0.221896        0.143261
LJ         -0.578671        -1.11081         3.75987
LJ          -1.92005        -2.06048         2.66009
LJ           3.98894       -0.944004        -5.46297
LJ          0.762114       -0.620785       -0.782703
LJ           3.06649         2.12532        -1.43584
LJ           3.77835         2.87932         1.17878
LJ           2.60983       -0.078851        0.729855
LJ          -4.69197        0.316535        0.696612
LJ          -3.32606         2.02493        -0.13843
LJ         -0.504508        -1.64584        -5.58384
LJ          -3.08187         2.32816        -1.20272
LJ          -1.29095        0.588312         2.20111
LJ           1.40116         5.92345         0.68615
LJ          0.342004        0.161779         3.72448
LJ          0.059828       0.0620638         2.63828
LJ           3.64615        0.491561         1.38586
LJ           2.52996        0.431955         1.60438
LJ            2.4138         1.02126        -4.85407
LJ           3.63375        0.630618         2.73696
