108
#Comment!
LJ           0.36731        0.405697        -2.99383
LJ           6.20695      -0.0467756        -6.23757
LJ           5.69077      -0.0664391        0.202115
LJ           4.75267         4.48787        -3.24108
LJ           5.43574         2.83572        -2.56184
LJ           6.01808         1.78461         1.05025
LJ          -1.53368        -1.25066           1.649
LJ           2.57661       -0.827617        -3.84447
LJ          -4.18883          5.7629         3.90981
LJ           -3.0234        -3.91513         -4.8696
LJ           0.66209         2.81475        -5.64483
LJ          -4.42573         5.40313       -0.910356
LJ           3.19919        -3.47097         0.04723
LJ         -0.693725        -5.46475        -4.61671
LJ         -0.667959         4.68692        -3.96694
LJ          -3.12388        0.347993         3.54485
LJ          -5.44281        -1.26107        -4.95119
LJ         0.0140687        -2.61746         5.83243
LJ          -2.72325        -1.15839        -3.24287
LJ            6.1763        -2.02339         3.07095
LJ          -1.61712        -3.80529        -5.09647
LJ           2.69653        -5.82432         3.14041
LJ           5.32418          2.5446         3.23828
LJ          -1.44094         5.92635         2.71882
LJ          -5.74831        0.959828         2.51018
LJ          -5.45667        -3.38884         3.15605
LJ           6.24241        -3.62044         2.60592
LJ           -4.0331         1.68907          5.2483
LJ           1.13726         2.23274         2.78436
LJ          0.170095        -2.84232        0.794856
LJ           1.11642         4.96469        -4.26549
LJ           3.03958         -4.9408         3.64609
LJ           5.28415         4.17967         5.01439
LJ          0.782843         -5.3914        -4.02372
LJ            5.6026         1.70298         2.17355
LJ           2.24682       -0.783151      -0.0152036
LJ          -2.18959        -5.09434        -6.18041
LJ         -0.367231       -0.657411         1.75717
LJ          -2.43367        -0.90844         2.24625
LJ          -5.94647         3.26399       -0.631201
LJ           4.09829        -1.24491         -1.3687
LJ           4.90466        -3.24022         5.61624
LJ           -3.3904         1.37075        -1.37747
LJ          -2.05349        -1.82815         2.48009
LJ          0.334322        -1.31822         2.69977
LJ          -4.92372         1.49806         3.47549
LJ           5.98242        -1.72954        -2.62612
LJ          -3.45835        -2.42849        -4.30736
LJ           3.56508        -4.16276        -6.08052
LJ           4.42798       -0.148815         2.52018
LJ          -3.43155        -1.35403         2.31535
LJ         -0.883902         2.97033        -4.49548
LJ          -6.37609        -3.28372         1.46519
LJ           3.87999         2.59403        0.297488
LJ       -0.00947793         4.71358        -2.22453
LJ          -1.75328         -4.0974         6.34158
LJ          -4.52918         1.81268        -2.26875
LJ          -5.22774         2.66304        -3.77101
LJ          -5.56594         6.25164         3.72793
LJ           2.62706        -1.96422       0.0997899
LJ          -4.19081        -2.84294         5.52905
LJ          -2.24577         5.16482         4.84376
LJ           5.44036         1.31568        -3.79665
LJ          -5.81555         2.23243        0.992633
LJ           -5.6783           4.221       -0.392836
LJ           3.11154        -5.54756        -5.51271
LJ          -4.91762         2.66226        0.271057
LJ           2.65146         2.57012         4.20503
LJ           3.53652        -2.00563        -2.01441
LJ           4.08341          3.0518         2.21097
LJ         -0.965337        0.496896         2.06206
LJ          0.680764       -0.672607        0.489054
LJ          -2.31186        -3.29642        -1.69907
LJ          -2.60283        -2.56724         1.44721
LJ          -5.98567         5.66827         4.74649
LJ           4.85104         1.50174         1.38003
LJ          0.412878        -4.82151       -0.717133
LJ          -1.03949        -2.63097           3.061
LJ           3.97285         5.95445        -5.12752
LJ          -2.61904         -3.0621         3.00675
LJ          0.386425       -0.887899         4.40489
LJ           3.68058        -3.10707        -1.91649
LJ           2.24605       -0.182224       -0.871089
LJ         -0.896441        -1.39389         2.55081
LJ           4.99983        -5.62486        -4.15639
LJ          -5.63249         1.09034         1.33403
LJ         -0.241584        0.897931         2.68387
LJ          -1.28282        -2.02444        -3.17769
LJ           4.28989        -2.41447        -2.74883
LJ          0.587716         -5.9777         4.87704
LJ           5.17848          5.5596         4.67813
LJ           6.06787       0.0543062        -1.47654
LJ           3.11318         3.78619        -2.91862
LJ            2.9039         2.60655       -0.305391
LJ          -6.12998         4.17153        -1.70773
LJ           4.16154        -2.27875        -1.13543
LJ          -5.23406      -0.0570198         1.79035
LJ          -3.67501         5.38618         -3.4013
LJ         -0.677935        -3.21778       -0.741034
LJ          -4.99748         3.51188        -1.79605
LJ            0.2409         1.38027         1.67798
LJ            2.5081         -1.3126        -1.06904
LJ           2.40267      -0.0779912        -6.37556
LJ         -0.507044         1.42959        0.773054
LJ           4.66202          1.0174         2.55177
LJ           3.49272         2.12505         1.22492
LJ           -5.5721       -0.799512        -2.75737
LJ           5.04344         1.70246         3.91963
