108
#Comment!
LJ          -3.76895        -3.76829        -3.22799
LJ          -2.10828        -1.98635        -3.15066
LJ          -2.98554        -1.99156        -2.54148
LJ         -0.958433         -4.3436        -1.35719
LJ         -0.285989        -3.38278         -3.0627
LJ           1.06606        -2.56198        -4.18177
LJ          -1.36263         -1.7542        -1.38749
LJ        -0.0744252        -2.34851        -2.10312
LJ           2.85927        -3.04008        -3.76221
LJ           1.15485        -2.23258        -2.29074
LJ           0.76579        -3.79466        -3.30395
LJ           1.48467        -3.23611        -1.51844
LJ          -3.77704        -1.13778        -1.80489
LJ          -1.83625        0.051787          -3.381
LJ           -2.5968         1.10155        -1.72492
LJ          -2.69699        -2.16368        -1.22079
LJ         -0.100289       -0.572265        -2.39905
LJ         -0.174099        -1.09783        -3.64465
LJ         -0.901646      -0.0431319         -1.7723
LJ          0.663552       -0.714625        -1.56659
LJ           1.28298        -1.13054         -3.0462
LJ           1.10345        0.451774        -2.29434
LJ           1.62952       -0.272618        -1.33779
LJ           3.52287       -0.769748        -1.40793
LJ          -3.75952        0.767434        -3.90426
LJ          -3.62922         1.97413        -3.22421
LJ          -3.32129         0.89667        -2.62343
LJ          -1.53626         1.01493        -2.56159
LJ          -2.35652         1.35098        -4.24951
LJ          -1.12226         1.85115        -3.65136
LJ          -1.98379          2.2295        -2.95398
LJ         -0.417544         1.09179        -2.34741
LJ          0.286136        0.262295        -1.74803
LJ          0.918015         1.63084        -3.27478
LJ         0.0562363         2.31079        -2.24731
LJ           2.11943         1.60148        -2.10665
LJ           -2.2555        -4.20392      -0.0291135
LJ          -1.72163        -3.11152        -1.31795
LJ          -3.48661        -4.02937       0.0586517
LJ          -1.77929        -1.87308        0.213063
LJ        -0.0572264        -2.95435       -0.977186
LJ         -0.587939        -1.28859        -1.71669
LJ          -2.14358        -1.35081       -0.869214
LJ       -0.00127915         -2.4922      -0.0195474
LJ           0.65871          -2.303        -1.44142
LJ           3.85175          -1.178       -0.253522
LJ           1.42964        -1.95286       -0.552159
LJ          0.799191        -3.02935        0.649854
LJ           -3.4933       0.0405213        -2.19751
LJ          -1.97371        0.297877        -1.11877
LJ          -4.74386        0.660182        0.219383
LJ          -3.47057       -0.990254       -0.689081
LJ          0.422856        -2.30953         -3.4422
LJ         -0.748656        0.797037        -1.09561
LJ         -0.463076       -0.474992       0.0762262
LJ         0.0718179        -1.28072        0.383721
LJ           3.06024        -1.79318       -0.946814
LJ           2.48366        0.603988        -1.63675
LJ         -0.289311       -0.910567       -0.883472
LJ           0.87189       -0.912661       -0.598596
LJ          -3.27348         1.84158       -0.232806
LJ          -1.28359         1.80009          -1.731
LJ          -4.76708         3.23911       -0.360378
LJ          -2.65245       -0.263508       -0.224071
LJ          -1.30688        0.301549       -0.204135
LJ         -0.124654         2.45353        -1.15281
LJ          -1.55535         1.52348       -0.300564
LJ          0.209138         1.95876       -0.277589
LJ          0.939924        0.883732       -0.986552
LJ           1.07792         3.36058       -0.359996
LJ          0.554835         1.37083         0.82053
LJ           1.85269         2.32236       -0.208435
LJ           -2.3931         -2.5347        0.773642
LJ          -2.16439        -1.82032         1.79144
LJ          -2.84277        -0.90222         2.92405
LJ          -2.53855        -3.92679         1.49335
LJ          0.441651        -4.03097         2.19813
LJ         -0.867982        -2.77369        0.867062
LJ        -0.0835996       -0.641179          2.8896
LJ          0.814148        -2.96499         2.02056
LJ          0.677294        -3.92867         1.18089
LJ           2.47605        -2.15995        0.393363
LJ           1.60288         -2.6091         1.29039
LJ            1.7002        -3.61916         1.92156
LJ          -3.04442        -1.07727        0.415343
LJ          -3.42455        0.155945        0.389076
LJ          -2.24117        0.895189         1.79953
LJ          -2.39326       -0.797319         1.51017
LJ          -2.30643         0.36568         0.65808
LJ         -0.614832       -0.580666          1.6498
LJ          -1.47814       -0.598542         2.25099
LJ           1.19628        -1.18446         3.87604
LJ           1.10286        -1.95622        0.581503
LJ           2.45598         1.19086       -0.147835
LJ            1.9102         1.23528         2.34903
LJ           1.86728        -0.52893        0.810968
LJ          -2.59987          1.2202        0.283714
LJ          -2.15029         2.42438        0.935992
LJ          -1.97691         0.77128         3.27296
LJ          -1.59269         1.50548        0.895654
LJ         -0.275331        0.348748          1.3334
LJ          0.281514         2.88072        0.916402
LJ         -0.566264          1.8948         2.87895
LJ         -0.661003        0.509595         3.10448
LJ           1.80547         1.51001          1.0047
LJ            2.8925         1.14807         1.36557
LJ            0.5909        0.613579         2.81331
LJ           2.96629        0.798678         2.92157
