108
#Comment!
LJ            3.5559         4.84257         5.86739
LJ           5.10128       -0.644567        -2.75326
LJ          -6.20579        -2.40273        -3.78156
LJ           5.04059         4.42169        -6.07306
LJ          -4.81602         4.98211        0.730306
LJ          -6.18341         2.43594         3.23121
LJ         -0.708247         -4.2237          1.1166
LJ          -5.99684        -4.24354         3.08495
LJ         0.0292138         4.79616       -0.751516
LJ           -5.4114         -2.8633         2.49141
LJ          -6.09224         1.71755         6.08906
LJ           2.51546       -0.156439         1.50106
LJ           2.77567       -0.509915         4.39879
LJ          -1.28913        -2.47626        0.315927
LJ         -0.617638         1.80765        -3.20145
LJ          -2.93245         4.52086        0.778724
LJ            2.2068         1.24718        -4.63619
LJ           4.39532         2.90511         6.38848
LJ         -0.596196        -4.75855        0.530947
LJ         -0.790314        -1.39452         3.50627
LJ          -4.08564        -5.56746          3.8001
LJ          -4.45385         1.90571         1.53115
LJ          0.267974       -0.976523         3.81255
LJ         -0.780987       -0.463779         3.83747
LJ          0.928881       0.0823802        -1.80747
LJ           5.47088        -1.47331         4.53362
LJ          -2.77682        0.822801         4.03618
LJ          0.630776         0.13837       -0.744892
LJ           1.49239        0.529108       -0.610917
LJ          0.900529       -0.049334         5.07039
LJ          -1.67586        -1.72425        -1.72807
LJ           1.92536         6.12038        -6.13587
LJ          -2.71419      -0.0585789        -3.95001
LJ          -1.51055        0.120406        -3.68452
LJ           1.72508         1.49488         2.19828
LJ           1.46143        -4.54161        -1.89215
LJ          -6.39892        -6.26758        -0.66477
LJ          0.517764       -0.591826         1.35211
LJ          -2.69773         5.15809        -1.64579
LJ         -0.370931        -1.73251          4.8694
LJ          0.905451        -6.44858         3.57615
LJ          -1.19344         -5.6707        -4.62673
LJ          -1.92381         6.03196         -2.5734
LJ           3.57002         1.74307         5.43633
LJ          -3.93251         1.78881         1.62288
LJ          -2.45221         1.80851         6.08089
LJ           6.28414         5.61159        -2.56918
LJ           2.93192         3.41819         5.77541
LJ           5.48877         4.28893         0.76846
LJ          0.767788         1.89297         3.28657
LJ          -3.97473         5.67612        -4.92591
LJ           3.08602         1.82466         1.74153
LJ           2.88373        -5.50362          4.8946
LJ         -0.653263        -4.48326         -2.2897
LJ           3.59402         4.12906         1.78763
LJ           3.51732        -3.32327         2.52881
LJ          -5.68304        -5.14107         3.13291
LJ           1.32891        -5.37235        0.495489
LJ           4.35564        0.865601          2.6068
LJ           1.48063         2.65111         1.44822
LJ           4.52089        -2.50505        -1.72312
LJ           -3.7315        -1.66317         5.12829
LJ          -3.39479        -6.40547        -3.97333
LJ           -6.3441         4.31454         2.97036
LJ          0.516629         -5.4109        -4.61554
LJ          0.911349        -4.91135        -5.43271
LJ          -2.96831         2.48411         4.49899
LJ           -1.3918        -5.93398       -0.980882
LJ         -0.206556        -4.02496          -2.362
LJ           1.72085        -6.15962        0.757969
LJ           6.09792         1.66184         -5.7097
LJ           2.66067        0.418808         2.54318
LJ           3.46533         2.14839        -6.42722
LJ          -1.48388       -0.518356        -3.83651
LJ          -3.69166        -2.21117        -2.53105
LJ           5.39212         2.17502          4.8846
LJ           1.99701        -5.93059        -3.28004
LJ          -3.84032        -2.72606         4.37627
LJ           5.44837        -1.84003        -5.20496
LJ          0.848164         5.60934        -1.90324
LJ          -1.97924        -5.79696         3.27335
LJ          -2.02959         1.71863        0.530928
LJ           4.07292       -0.547808         -4.2317
LJ          -2.42216        -2.78101         1.29508
LJ          -5.67648        -5.88987         -4.3154
LJ           3.37756        -3.59684        -6.28043
LJ          -2.07556        0.853018        -1.52214
LJ          -6.29888       -0.246454        0.831257
LJ          -3.51917          5.7503         5.50525
LJ           3.22366        -5.67583        -5.59422
LJ           2.06597         5.26125         -5.4629
LJ           5.40986        -1.17536       -0.780329
LJ           5.87226           6.021        0.560242
LJ          -3.40071         5.81147          3.8019
LJ           6.00119        -3.85154       -0.124256
LJ           2.69534        0.942813         -1.7873
LJ           5.02937        -2.89409        -2.75284
LJ           1.13542         -3.6681        -1.70404
LJ          -1.70253          2.0366         2.11536
LJ           3.79464         2.73142        0.084491
LJ          -4.60771        -2.08727        -4.49796
LJ           5.35078         5.64385         4.28126
LJ           5.90545        -1.00397         5.04744
LJ          0.841259        -3.41374       -0.549853
LJ          0.516734        -3.37919         3.48727
LJ            3.0379        -3.36534        -2.23823
LJ           -1.6809       -0.752584         3.15189
LJ           -4.3693        -5.62614          2.2604
