108
#Comment!
LJ           6.00453         4.41023        -3.58928
LJ          -3.98455         -4.3886        -5.13798
LJ             0.804        0.790475         1.69511
LJ          -5.75052         3.81658        -5.27278
LJ          -1.85294        -4.03756         3.86982
LJ           1.00001        -2.51844         3.58602
LJ          -1.86869         4.21621          2.7862
LJ           1.86043        -1.84593         1.91333
LJ           0.59001        -3.67307        -6.29725
LJ          -3.37395         5.88813         3.42893
LJ           4.67691        -1.99783         3.28316
LJ          -1.92386         1.60645         2.88675
LJ          -2.91421        -4.73203        0.795372
LJ          0.499494        -4.93259         6.33714
LJ          -1.54949         3.11718         5.15604
LJ         -0.163005         5.93078         -1.1271
LJ           5.51445         4.19054         6.42803
LJ          -4.20083         2.15447         5.77665
LJ          -5.53814       -0.204974          4.6219
LJ           4.63916         6.09206         4.03605
LJ            5.9823        -4.12567        -3.45895
LJ          -3.70908        -5.91857        0.712376
LJ          0.349749          1.0384         5.95209
LJ          -3.85202          5.4247        -3.21977
LJ            5.6025           3.189         5.93113
LJ           4.43221         6.02181        -2.88258
LJ          -4.87922        0.207056          2.3513
LJ          0.259383        -1.70901         2.65755
LJ           4.37373         1.01807         5.25065
LJ          -2.11336         4.42126          4.2486
LJ           4.41818       -0.363071         4.38556
LJ           1.61307       -0.445228          1.7957
LJ           3.46313         4.34711        -1.74413
LJ         -0.804421         3.76016          1.8759
LJ         -0.489371        -4.46341         4.67735
LJ          -5.59615       -0.150681        0.866153
LJ         -0.117275         1.12036         4.27615
LJ         -0.323923        -5.74951        -2.80553
LJ         -0.512587         -1.9877         2.58142
LJ           5.06325         2.73276        0.117567
LJ         -0.725279         1.32117         1.96302
LJ          -6.21347          4.5696       -0.897723
LJ          -5.47619         3.84964         1.74791
LJ          -3.09613        -5.96732         5.13163
LJ          -3.89569       0.0879482        -6.43078
LJ           2.66153        -6.13721        -3.79381
LJ          -2.12221         6.26262          5.0415
LJ           3.39619         5.58966        -3.26408
LJ          -4.92607         3.99467        -5.27446
LJ           3.61416        -5.36803         -6.0413
LJ          -5.13154        0.670947        0.955088
LJ             3.429         5.74217        -5.98192
LJ          0.988268        -4.71717        -2.85238
LJ          -3.29948        -3.53992        -3.11384
LJ         -0.237836         3.28307        -4.53917
LJ           6.06395        -1.37088         -5.5689
LJ          -4.38031        -4.06735         5.37523
LJ           2.38298       0.0295335         1.00252
LJ          -2.51061        -3.28993         6.02213
LJ          -4.35151         6.41037         6.05576
LJ           6.25381        -6.31962         0.44036
LJ           1.13954        -6.39081           6.081
LJ           4.93026        -4.37421           1.936
LJ         -0.949341        -1.71445         3.11462
LJ           -5.1275         2.48647         1.36691
LJ          -5.22247        0.290673         5.30908
LJ           5.19454        -1.01151        -4.34862
LJ           5.44014         1.02046         2.04173
LJ          -1.26894        0.562487         5.06687
LJ          -5.50611         4.02389       -0.855313
LJ          -1.25402        -4.79584         5.38168
LJ           1.39634        -4.09119       -0.984908
LJ         -0.714965         2.74103         -2.9788
LJ           2.64493        0.981864        -1.98697
LJ           6.11328         6.09269        -2.04604
LJ         -0.376376        -1.23555        -3.33374
LJ          -4.09818        -1.32716         0.98089
LJ           4.31221        -2.93453        -1.34008
LJ           3.97042         -2.1597         5.13912
LJ          -4.39469         4.25815         -2.4156
LJ          -4.13094          2.7048         3.51047
LJ           1.66501        0.679631         3.88274
LJ           2.56355        -3.52318        -3.38509
LJ           5.04526         5.80782        -1.09684
LJ          -3.59206         5.42908        -5.00241
LJ          -5.07427         5.20959       0.0876995
LJ          0.248554          3.5231         6.20824
LJ           1.32766         2.46725         -1.0768
LJ           5.83298        -4.65392        -6.06098
LJ         -0.346463         5.24837        -5.74249
LJ           3.09169        0.316305         -3.6258
LJ          -3.92804        -2.35807         4.69132
LJ           3.63554           5.972         2.57811
LJ           6.25127        -1.01217        -2.84436
LJ           2.20289        -2.03615         3.59441
LJ          -1.58107        -6.31284        -1.21353
LJ           1.16313         2.73013        -4.14846
LJ           -4.8766        -3.42172        -4.24724
LJ           4.89412          2.4887        -3.23847
LJ           3.66548         1.88883         2.70324
LJ          0.382871       -0.536746         3.92102
LJ           5.16249         6.08819       -0.383554
LJ         -0.136417         5.94468        -6.16162
LJ           1.02562        -2.66549         6.35593
LJ          -2.87992         5.02268         2.88729
LJ           2.09881        -4.69325        0.948565
LJ           4.28826        -1.80204       -0.125946
LJ           5.45051         6.02235        0.538372
