108
#Comment!
LJ          -3.13861         1.73911         5.34557
LJ           3.22172        -4.13289         4.17728
LJ           2.95738        -4.11907        -5.12235
LJ           -3.5453       -0.113048        -5.44706
LJ           3.07114        -2.97915         6.44778
LJ          0.525797          2.9626         1.58633
LJ           1.63214        0.727245        0.578347
LJ         -0.974928        -2.05383         4.41335
LJ           3.28366         2.35666        -6.13581
LJ          0.789531        -1.69454        -3.90765
LJ          -3.68725        -3.73362         3.11561
LJ           6.10072        -4.39555         6.23206
LJ         -0.250946        -4.94066         0.43082
LJ           -4.5766        -5.68098        0.710581
LJ          -5.78057         2.65706         3.15384
LJ           1.29749         1.84862         2.37162
LJ         -0.767368        -6.32263         3.47581
LJ          -1.92823        -4.13428          5.9551
LJ          -5.86073       -0.868247        -4.45294
LJ          0.125118        -3.69768         1.74947
LJ           2.01089        -5.98562          3.6408
LJ           6.10319          5.1013        -2.68624
LJ          -5.04394        -4.05046         3.07589
LJ          -6.04329        -1.49321         4.55442
LJ          -5.92488          5.5148         2.60999
LJ           3.11147        -6.11195         6.09044
LJ         -0.295249         1.31644         3.01558
LJ           1.50012          1.1164        -2.04983
LJ           1.52366         3.27362         6.05538
LJ           1.09051         5.32077        0.355725
LJ           1.98305         2.95083       -0.639966
LJ           2.32627         2.52516         -1.2795
LJ          -4.04671        -5.90831         6.31606
LJ            2.9903         1.45025        0.977065
LJ           3.36948         -3.7683        -4.09485
LJ          -3.32127         2.22916        0.667376
LJ           5.12886         6.00869         1.56376
LJ         -0.443283       -0.913601         3.11869
LJ         -0.872648         4.46331         2.72231
LJ           4.53143        -3.32985         2.97563
LJ           5.97888         5.03548         1.60581
LJ           2.65822        -3.70028         2.07759
LJ          0.569309        -4.29791         4.33723
LJ          -6.23654        -5.42565        -6.08505
LJ          -3.92488        0.221399           2.402
LJ           2.58171        -3.81749        -1.01112
LJ           4.16296         2.03813         3.58807
LJ           5.85476         2.81856         1.44651
LJ           3.02234        0.007064         2.24584
LJ          -1.90579         -3.9223        0.713933
LJ          -3.98507        0.599703         6.22199
LJ          0.832288         1.89563         1.28694
LJ          -5.56383         5.64941         3.41044
LJ          -1.82442        0.983949         4.35734
LJ           2.99959        0.466147        -6.09684
LJ           2.44796         1.27696       -0.971921
LJ           2.07455        -4.33183        0.203916
LJ          -1.75282         6.29161        0.526718
LJ         -0.948347        -3.75723       -0.268268
LJ           1.21535         3.15583         -1.8582
LJ            6.1586        -2.87203         5.33216
LJ          -1.25684       -0.988169         2.07176
LJ          0.837387         -3.0211        -1.89424
LJ          -6.20415        -4.94649        -5.70248
LJ         -0.287583        -4.62141         4.32305
LJ           5.28489       -0.200861         6.28773
LJ          -3.86557         5.91224         5.68018
LJ          -2.35443         3.63642       -0.600065
LJ          -6.38989         3.83202         -2.3828
LJ          -4.19188         6.09829          5.8353
LJ          -2.06819        -3.61426        -6.35403
LJ          0.845996         3.54834          4.7317
LJ          0.275617        -1.96552        -3.48696
LJ          0.812675          6.3014        -4.39881
LJ          -2.71428        -4.37286        -3.75569
LJ           4.48513         1.63465        -1.74418
LJ           6.06839        -5.60137        -2.20452
LJ          -1.92389        0.997738       -0.997098
LJ          0.782682        -3.34978          -5.512
LJ          0.973758         4.79925         3.76878
LJ          -4.49261        -4.31289         1.24235
LJ           2.52213         1.64849         5.08674
LJ         -0.845868         5.90059         3.04436
LJ           6.34889        -2.96782        -2.24733
LJ         -0.500541        -1.31949        -3.31423
LJ          -2.83911         2.97101        -5.38849
LJ          0.586031         -4.8438         3.00212
LJ          -2.26798         5.40656        -1.20334
LJ           -3.5995        -1.09317        -5.74617
LJ          0.445332         5.47139         3.71495
LJ          -4.48764          -1.071         -4.4841
LJ           1.64328          5.2209         3.14258
LJ           1.10862        -1.96333         5.57291
LJ         -0.810313         6.27919        0.913985
LJ           2.23866        -3.82697        -5.71714
LJ           3.16044         5.99706         5.76932
LJ           -3.6656         2.14549       -0.042004
LJ           1.14745        0.900452       -0.957503
LJ          -1.93877        -2.82662        0.404346
LJ          -5.67906        -5.30837         4.03486
LJ          -5.71191         4.34334         4.45852
LJ          -3.09109         2.85505         2.45251
LJ           5.43215        -1.93188         -2.7182
LJ           3.99274        -5.04736         1.47447
LJ          -6.08318        -1.90183         6.18209
LJ          -2.88496      -0.0414726        0.952365
LJ          -1.84191         2.72818         4.00754
LJ           5.91862          6.1741        -5.19957
