108
#Comment!
LJ          -6.11112        -5.72962        -3.71317
LJ          -3.20757      -0.0631807        -3.75198
LJ          -3.22568        -1.87492        -1.40273
LJ          0.538194        -5.65664        0.507963
LJ         0.0150338        -2.59572        -3.19128
LJ           2.94613        -4.16537         6.05709
LJ          -1.76995        -2.68188        0.103948
LJ         -0.388266        -1.47839        -2.80614
LJ           5.10445         -2.3563        -4.95719
LJ           0.78189        -2.28748        -2.58666
LJ           2.67626        -5.47543         -5.3542
LJ           3.03456        -4.25152        -1.54347
LJ          -4.34839       -0.264863       -0.670597
LJ          -1.73627         1.69188        -3.78955
LJ           -2.1186         1.52309        -1.86115
LJ          -3.53343        -5.16009       -0.748737
LJ          0.558969        -1.41159        -3.33006
LJ          0.197322        -1.26343        -4.50318
LJ          -1.15263       -0.594992        -1.79459
LJ           1.26607       -0.716745        -1.74426
LJ          0.886462         -2.4744        -3.78359
LJ           1.94991        -0.62453        -4.20711
LJ           2.82451         1.46622        0.166667
LJ            4.8794       -0.502861        0.479596
LJ          -4.66245        0.196775        -5.02577
LJ          -4.71953        0.547175        -4.02876
LJ          -3.69753        0.669857        -4.60779
LJ         -0.844518         1.49164        -4.42511
LJ           -4.8642         1.27187         6.40969
LJ           -4.3424         2.52939        -6.16808
LJ          -1.92046         2.06815         -2.7776
LJ           1.00581       -0.391973        -3.34531
LJ           2.21079       -0.324993        -3.11602
LJ          0.128811         2.19001        -4.24674
LJ         0.0921835         4.76728        -2.71641
LJ           2.83092        0.676439        -2.17992
LJ          -1.31034         6.34857         1.35376
LJ         -0.551728        -2.26179        -1.58035
LJ           -2.5026         6.43177        0.835383
LJ          -2.12531       0.0349035        0.123719
LJ          0.887026        -2.44092       -0.626276
LJ          -2.14243        -1.25631        -3.77175
LJ          -4.30301        -2.83944        0.931347
LJ         0.0249233        -2.71158      -0.0357692
LJ          0.579774        -2.28831         -1.5704
LJ            5.8766        0.135563        0.860058
LJ           2.43612        -0.85818        -1.61857
LJ          -1.15872        -2.60311         1.26633
LJ          -4.76383        -1.54082        -3.02065
LJ          -3.45525        0.584307        -1.19561
LJ          -5.82448          1.8178         1.17317
LJ          -6.26175        0.196999         1.80165
LJ           1.34301        -5.72728        -4.64387
LJ          -1.83169         2.73709       -0.692049
LJ         -0.597478         1.30334        -1.23525
LJ          0.175434        -1.27861         2.48272
LJ          -4.41576        -2.14376         1.92397
LJ            4.0517        0.813079        -2.11962
LJ           -2.0737         -1.8873       -0.744029
LJ          -1.71332        -0.46301       -0.881091
LJ          -3.97664         3.87551         2.02036
LJ          -2.03882         3.47052        -3.19095
LJ           5.56951         5.52047        -0.43225
LJ          -3.50682       0.0293383     -0.00262481
LJ          -2.66124        0.986562        0.811503
LJ        -0.0100923         3.91283        0.207607
LJ          -1.52037          4.8961       -0.696361
LJ          0.792652         1.62286        0.303303
LJ           1.09526       -0.329784        0.269437
LJ         -0.179343         5.35375         1.27414
LJ          0.171253        0.558671         1.83619
LJ           1.91408         5.39336       -0.512025
LJ          -1.29761        -1.50549        0.757355
LJ           -1.8644       -0.960595         1.82475
LJ           -3.1831        0.894398         3.69237
LJ          -3.64436         -4.6482        0.800693
LJ           2.72473        -5.43109         5.00832
LJ           -1.8166        -3.46185        0.783191
LJ          0.640838        -2.32474         4.47932
LJ          0.705587        -2.79519        0.871727
LJ          0.714495         6.44286         2.64573
LJ           3.55658        -1.32244        -1.68446
LJ           1.72069        -3.25741        0.357884
LJ           1.49626        -3.57166         1.27329
LJ          -3.93403        -3.49732       -0.348735
LJ          -4.22845        0.791576       -0.420003
LJ         -0.868118         1.08616        0.468881
LJ            -2.232        -1.05758        0.294513
LJ           -4.6708       -0.289952        0.421017
LJ         -0.631778       -0.900841         3.30195
LJ          -2.25441         -1.7614         2.97655
LJ            3.2017        -1.03152         6.42339
LJ          0.884498        -1.43248       -0.372541
LJ           2.97333          2.0906        -1.21057
LJ           3.21359         2.64674         1.70043
LJ           2.24546       -0.149037          0.1657
LJ          -4.09686        0.909025        0.836322
LJ          -2.95762         1.99736        0.139237
LJ         -0.990532        -1.01493         6.05831
LJ          -2.36141         1.74195       -0.837162
LJ         -0.970552        0.398076         1.56785
LJ           1.05481         4.65187         0.58814
LJ         0.0849839        0.848043         3.64219
LJ         0.0188546       -0.332638         2.68461
LJ           3.39765        0.910877          1.2404
LJ           2.53153        0.298916         1.72837
LJ           1.84135        0.839931        -6.37708
LJ           3.54865        0.672043         3.02201
