108
#Comment!
LJ           2.81841         3.95087        -4.58975
LJ          -5.19499        0.588227        -4.35957
LJ          -5.61999       -0.578262        0.312384
LJ           2.23087          6.1777         5.38374
LJ          0.969338         -1.2017        -3.19021
LJ           5.98521         4.85349         2.13624
LJ         -0.360397        -2.26107          1.0719
LJ          0.739421      -0.0657897        -3.69163
LJ           -4.7362         -4.2122         6.37965
LJ          0.274904        -3.93981        -4.93016
LJ           2.38363         4.64005        -5.40053
LJ           5.98279        -6.02198        -1.55519
LJ           6.39687        -1.13796       -0.282992
LJ          0.393388         5.21456        -4.55761
LJ         -0.262438         3.24607         -1.9089
LJ          -4.59525         3.41602         1.12531
LJ           3.13093         -1.3887        -4.30452
LJ        -0.0713539        -1.73175         6.35769
LJ          -2.77905       -0.800101        -2.04226
LJ           3.22358       -0.163402        0.170415
LJ         -0.426439        -3.16743        -3.99875
LJ           1.96157        -3.06693         5.54604
LJ           4.12247         2.30932         2.55628
LJ          -4.42883         1.78687         3.63734
LJ           6.24421        0.302337         5.40074
LJ          -4.74538        -1.22164         5.64683
LJ          -5.93902        -1.22526         6.18444
LJ          -2.51111         3.88218         5.63122
LJ           4.59971         2.06484         4.79334
LJ           4.15499         4.36131         1.82424
LJ         0.0530786         4.61321        -3.74716
LJ           2.14563        -3.07429        -5.85324
LJ           5.30165         1.01636        -6.38273
LJ         -0.977664          4.6583        -5.18421
LJ           3.60692        -3.09284        -6.38354
LJ           3.66726        -0.20424       -0.772702
LJ          -2.43267         5.10304         4.52725
LJ          0.465616        -1.43434        0.369704
LJ          -1.97448         2.65885           1.211
LJ          -4.42467        0.490693       -0.816245
LJ           1.90505        -1.75736        -0.64262
LJ          -4.94083        -2.35922          -5.647
LJ          -5.72279         4.97437        0.892718
LJ          -0.84522        -3.16498        0.627492
LJ         0.0012202        -2.42621       -0.221595
LJ          -5.15387         1.76241         2.50764
LJ            3.3629       -0.351466        -2.56705
LJ          -2.33603        -2.46108       -0.768985
LJ           5.76852        -3.09302         -4.4949
LJ            6.2966      -0.0936875       -0.743524
LJ          -6.07732         1.21469         2.49463
LJ           2.48557         1.88385          5.1687
LJ           3.88879         1.42905         5.41597
LJ          -5.25042         2.06719       -0.245056
LJ          -1.40486         3.49007        -2.68481
LJ         -0.860827        -2.69877         5.79437
LJ          -1.88004       -0.601154        -4.37709
LJ           6.16991          1.3739        -3.54028
LJ          -3.84629        -4.64698         1.55527
LJ          -5.74942       -0.719933       -0.979791
LJ          -4.79127        -6.02094         5.27145
LJ          -1.92781         4.49397         -5.7993
LJ           3.99878        -3.82537        -2.01435
LJ          -4.39945         1.18797      -0.0682312
LJ           -3.4549         3.13302        0.486029
LJ           1.11164         6.02899         3.32791
LJ          -3.50644        -2.86066        -1.16249
LJ           2.05519         1.25384         1.37329
LJ           3.03339        -2.38606       -0.572568
LJ           2.28917          4.0221          2.2232
LJ          -1.78822         1.12361         2.29054
LJ           1.43959        -2.55973        0.434399
LJ          -1.72693        -2.36603       0.0860915
LJ          -1.54733        -1.37194         1.16924
LJ          -4.69177         3.43064         4.34653
LJ          -5.23772         5.90793        0.634636
LJ          -4.31839        -6.37918         -6.1739
LJ          -1.92941        -2.73358         1.45683
LJ           1.57185        -5.77844        -6.38221
LJ          0.303935        -3.58753         1.47437
LJ          0.389301         2.33117         4.08963
LJ            3.8296        -1.79428        -2.11411
LJ           1.70661        -2.47507        -1.52862
LJ         -0.230637         -2.7339         2.03759
LJ          -5.88199        -4.47931        -2.32773
LJ          -5.59361        0.630795         1.12965
LJ          0.985092         0.90506         1.40095
LJ         -0.991888       -0.683502        -1.82344
LJ           5.18736       -0.299125       -0.582766
LJ         -0.103009        -3.21623         4.64325
LJ           1.62504        -3.11168         3.56307
LJ           5.88962       0.0182353        -1.96526
LJ           1.53001         1.34112        -1.77949
LJ           3.18875         3.28201       -0.583211
LJ           5.60292         3.62651       -0.346575
LJ           3.56595        -1.24694        0.271765
LJ           -5.4438        0.418051    -0.000211425
LJ           -3.9241         2.86256       -0.945072
LJ         -0.420548        -2.42208        -2.74374
LJ          -4.29512         3.36245        -1.84992
LJ          -1.14757        0.162884         2.37415
LJ           2.27505        -3.92282       -0.299614
LJ           1.14885       -0.922851         4.41177
LJ         -0.314747         1.03678         1.52228
LJ           4.10182        0.321427         1.78177
LJ           3.65825         1.56375         1.83587
LJ           4.25244        0.840066        -2.66393
LJ           4.20663         1.18931         2.69583
