108
#Comment!
LJ          -2.41384        -3.50913        -4.14707
LJ           1.53146       -0.685421        -3.93061
LJ           -5.9982        -1.26667        -1.62223
LJ          -5.79673          4.5573         2.61794
LJ         -0.262204          -4.648        -0.51824
LJ         -0.536836         4.08204         6.05826
LJ          -5.66251         2.14024        -3.63963
LJ           5.03149        -3.15449         3.54913
LJ          -2.23345         3.21517         2.66156
LJ         -0.446231        -5.21809        -2.27025
LJ         -0.605087        -6.42487       -0.177991
LJ           -1.6593        -3.80246        -6.09474
LJ          -5.37192        -3.06387        -1.13611
LJ           1.68562         4.29308       -0.335485
LJ          -4.33463         -1.0985         5.73886
LJ          -3.97243        -3.78827        -5.99282
LJ          0.603016        -5.51697         5.23148
LJ          -5.30111         1.55075         5.42236
LJ           1.87932         2.40985         4.77484
LJ           2.60916        -2.11975         5.71052
LJ           1.40462      0.00720625        -3.65488
LJ          -3.94518        -0.56798         1.53055
LJ         -0.471879        -1.76336         3.75559
LJ           4.49675        -4.06596           5.883
LJ          -1.31839        -2.91252         5.15409
LJ           3.30647         4.52515         3.71482
LJ          -4.30168        -4.13527          3.5041
LJ            6.3326         5.85725         1.16591
LJ          -5.10623         3.52675        -2.03091
LJ          0.575657        -6.08571         2.94749
LJ          -5.84069         5.63516        0.692659
LJ         -0.873605        -3.26492        -4.77109
LJ          -4.84233       -0.263841        -2.84854
LJ          -4.73383        -5.05999       0.0238272
LJ          0.776032         3.77098          4.7248
LJ         -0.561719        -4.77532         5.01757
LJ           3.71742        0.244149        0.300637
LJ           1.21061        -4.08586       -0.898994
LJ           1.96499        -1.21834        -4.44912
LJ           4.73148         4.03649         5.22785
LJ          -1.31543         4.32991         1.20155
LJ          -4.11094        -1.62538        -3.96343
LJ           1.31951         -2.5913         4.81518
LJ           2.00419         5.08472        -3.10217
LJ           3.25909         5.88769         4.23053
LJ          -5.93227         -4.8156         4.45167
LJ          -4.64981         4.99548        -4.92855
LJ           1.59906         3.48633         6.37334
LJ          0.709412         3.17894         4.03999
LJ          -2.94836         3.28335         3.18324
LJ          -2.55436         3.36104         3.48833
LJ           4.57052         3.64961        -3.06391
LJ          -3.53021         4.74282          2.2719
LJ           4.32193         6.29413         4.27751
LJ           2.77145         3.21809         1.20957
LJ          -5.68779         3.62963       -0.596985
LJ          -2.98238        -6.05181        -6.17871
LJ           2.04679        -3.22858         5.28018
LJ           1.52301        -6.13958        0.442061
LJ           5.04906        -1.22075          2.8614
LJ           -3.5739         4.71335         4.88356
LJ          -1.09087         5.16766         6.09184
LJ           3.44042         3.41659         1.20692
LJ           1.14492         5.93069        -3.92195
LJ          -4.16357         4.52524         2.64199
LJ           2.13489          2.6304          1.8373
LJ           2.25955        -5.17968        -2.47911
LJ          0.402135         1.05009         4.22361
LJ            5.5018        -4.16325        -2.64749
LJ           5.91572          2.3942         5.02439
LJ           5.05632        -4.27748        -3.15622
LJ            1.5524        -1.56241        0.129678
LJ           4.99764        0.891245         4.22303
LJ          -1.12931         4.65831        -2.80198
LJ         0.0465139         4.53014         5.08128
LJ          -0.73537          -5.329        -3.08698
LJ          -3.83145         2.95174         5.93475
LJ          -3.64866         6.15255        -6.09931
LJ           -4.7926         6.07572        0.693256
LJ          -4.31125       -0.416944         3.38117
LJ        -0.0321072         -5.3597        -4.98161
LJ           2.46856       -0.497137        -5.40556
LJ          -2.00674        -4.02764        -3.42436
LJ           2.67719         3.55403        -6.13035
LJ            3.2338         4.59361        -4.00205
LJ          -2.41871         2.15421        -2.15429
LJ           1.24004          4.0634        -2.78213
LJ           6.24074         2.48582        -6.09625
LJ          -5.43629         3.75171         2.00803
LJ          -4.71872        -6.31316        -1.20069
LJ           2.02475         4.60431         4.32768
LJ          -4.98247        -3.95742         4.31133
LJ           2.09624        0.197512         5.79993
LJ           2.35039        -4.24202        -1.83687
LJ           1.56585         2.10042        -1.40704
LJ           -5.0048         3.41885        -4.59519
LJ           3.14099         1.28712        -6.40204
LJ          -2.01674         5.82279        -1.16551
LJ          -3.11003        0.676543         3.34189
LJ           3.05684        0.701722        -2.68351
LJ          0.112517        -2.36228        -4.81345
LJ         -0.158494          6.2896         3.23481
LJ           3.07083        0.132681         3.55835
LJ          0.367472        -4.14129         -3.1062
LJ            2.3621        0.461994         4.39626
LJ          -5.07781         3.65943         1.66085
LJ            4.5123         2.68793         2.37768
LJ          -6.46187         2.85851        -6.10835
