108
#Comment!
LJ           4.60677         5.59299         1.40066
LJ          0.128013        -2.96692        -2.20963
LJ           4.63029        -2.92416        -2.95289
LJ           -1.4409        -5.79448         1.09705
LJ             3.884        -4.63622        0.027208
LJ          -2.87658        -1.50843       -0.485307
LJ          -2.72653       -0.390308         4.89248
LJ           1.41169         1.74999         2.38436
LJ          -3.39663         6.26181        -2.04528
LJ           4.62471         1.92004         1.39123
LJ          -5.69408        0.267607        -2.94512
LJ           2.66829        -3.56751         5.13436
LJ        -0.0117195        -2.29383         3.54294
LJ          0.155166        0.915655        -2.99023
LJ          0.112182         4.91549        -2.36051
LJ           4.05612        -3.32128         5.31751
LJ          -1.41144        -4.05213         2.99069
LJ          -2.35944        -4.35826         4.21323
LJ           1.45034        -1.99732         1.16638
LJ           4.84518         2.70574        -5.57106
LJ            2.8463         1.39738        -2.84809
LJ          -5.62636         1.19502        -2.28519
LJ            1.0378        -5.04262        -2.78784
LJ           5.92341         5.55159         3.65397
LJ          -1.17582         5.06335         1.56471
LJ          -4.56225         6.41385         -2.1287
LJ          -2.40714         -1.5981        -4.56226
LJ           6.25894       0.0655908        -4.70401
LJ           1.16822         1.81581        -2.85039
LJ          -4.47522        -1.37632        -4.96029
LJ           1.03512        -5.33831        0.961452
LJ          -5.10969         4.57038        -4.73523
LJ           2.07295        -2.81633         -4.3805
LJ           -1.7736         5.21389        -2.88801
LJ           2.48285       -0.702387         5.33715
LJ          -6.12487        -3.04403         1.57189
LJ          -4.72762        -4.35591        0.428942
LJ            4.6027        0.242183        -3.11431
LJ           1.89101         2.83881        -5.16741
LJ           6.32443        -6.36157         2.05224
LJ          -6.05603       0.0361533        -6.00374
LJ           6.14472         3.38405         5.62669
LJ           -3.3145        -5.51778         1.50651
LJ          -1.12099        0.310588      -0.0217001
LJ          -3.69475       -0.337257         0.92634
LJ           6.45208        -3.65333        -5.77962
LJ           1.78401        -1.84528        -6.13105
LJ          -2.51602        -6.18767          2.0973
LJ          -5.50232        0.137525         4.65164
LJ           1.55289         5.75415         2.20998
LJ          -2.12232        -3.42898         1.30265
LJ           2.36782        0.223899         1.35477
LJ          -1.02931       -0.198246         2.35593
LJ         -0.340829        -5.05999        -4.28162
LJ           3.08634        -5.01927         3.67507
LJ           3.57812       0.0735395         2.08124
LJ           6.20599       -0.467687        -5.12082
LJ           4.48844        0.341057        0.290492
LJ           3.36789        0.718199         4.09916
LJ           3.79355        -2.76337        0.175371
LJ         -0.733703        -5.28633        -2.00112
LJ           4.52022        -2.82507       -0.459993
LJ          -4.89008         2.99535        0.957589
LJ          0.811847        -5.50702        -2.34264
LJ          -1.64325        0.101222         1.48404
LJ           1.32881         2.33092        -4.40092
LJ          0.206558       -0.126845         4.92511
LJ          -1.27834         3.17818         2.56664
LJ           3.22926         5.40848         3.51903
LJ           2.55127        -1.76999          -1.468
LJ          -5.54899       -0.977805         4.85223
LJ          -1.48171         6.09006        -4.73489
LJ          -4.65417         4.16442         5.83312
LJ          -1.24079        -3.19678         3.94763
LJ            3.8973         6.34255        -3.53596
LJ           3.98898         1.30573         -4.2501
LJ          -3.42296         1.86819        -3.83091
LJ           6.41003        -3.36337         2.81724
LJ          -4.18419        -4.73751         5.94947
LJ           4.33865         -4.1121        -1.87258
LJ           5.39487        -5.76179        0.681717
LJ           3.33278         3.94976         2.60532
LJ          -6.30324         4.92363         2.35656
LJ          -2.84449        -3.19359         3.28491
LJ           4.31936         2.00827         2.68104
LJ         -0.183389        -5.48818          1.2036
LJ           3.77375        -5.91457        -2.29481
LJ          -0.60394         2.58799       -0.537362
LJ            1.7019         6.39256        0.132611
LJ          -6.05619          1.7564        -5.61177
LJ           1.20518          2.9131         -5.5978
LJ          -2.17394        0.586843        -1.74895
LJ           -1.8845        -4.39773         1.24124
LJ            5.4813        -4.05996         6.03092
LJ          -1.53589         2.99837         1.33418
LJ           5.54569        -4.62837        -1.06924
LJ           1.27341        -2.16368          5.6621
LJ            -3.083        -2.85722        0.767785
LJ           3.24877         2.55545        -1.84605
LJ        -0.0174212        -3.97677        -4.91835
LJ          -1.28444        0.369606        -1.59869
LJ            2.7096        -1.84296        -5.56234
LJ         -0.804078        -1.32197        0.499117
LJ          0.849701         2.14529        -3.80679
LJ           2.23813        -5.53361         5.51474
LJ           3.56132         4.40892        -1.24142
LJ         -0.652804         2.21735         3.88926
LJ          0.370104         2.24992        -5.35701
