108
#Comment!
LJ           2.54109        -4.00947         6.19548
LJ           4.55292         1.30387        -3.98288
LJ           3.44968        -1.61075         4.83969
LJ            3.5902        -2.93605       -0.723691
LJ         -0.279708         2.36119        -3.83462
LJ           3.43271       -0.621285        -3.78514
LJ           2.54651         5.85204         -1.6111
LJ          -5.69526          6.3417       -0.408723
LJ          -4.77697         4.69256         3.60004
LJ          -2.05986         4.90858         5.66714
LJ           2.51133         4.01492       -0.488636
LJ          0.642053        -5.34121        -4.02982
LJ          -1.29496        -1.59716        -2.70925
LJ           4.35832        -2.17821        -5.35788
LJ          0.414396         -5.7249        -1.64134
LJ          -2.38254      -0.0490285         6.24365
LJ          -4.35022         1.19456          5.7023
LJ          -2.57919         6.13655         1.53764
LJ            5.0605         5.63724        -2.02261
LJ           3.46675        -5.72646        -1.34391
LJ          -1.70265        -4.20548        -3.30326
LJ           2.91224       -0.925822         2.50387
LJ           4.24338        -2.77692         6.32816
LJ           3.94377          0.8505        -4.48149
LJ          -3.99284        -2.65649        -4.43548
LJ          -5.67911        -4.44761        0.621181
LJ           2.42348         6.35348          1.7193
LJ           3.93186        -5.86661         2.75869
LJ        -0.0102504        -5.61658         4.30017
LJ          -2.12142         -5.4775         1.38633
LJ           4.28895         -5.5316        -1.95169
LJ            1.9587        -0.68373        -5.44416
LJ           5.80994        -5.44192        -1.53275
LJ         -0.206125         2.68427         3.18713
LJ           1.87327        -3.61272         6.36953
LJ            4.4652         1.50312        0.576528
LJ           3.30922         3.28504          4.2008
LJ          -4.77188        -2.92489       -0.770047
LJ          -3.54936         4.56311        -5.62482
LJ          -2.24422       -0.367059        -6.40338
LJ          -4.68802       -0.380047        -1.43738
LJ           3.65499        -1.08832         2.66151
LJ          -5.82555        -5.60462       -0.671261
LJ          0.191713         2.20373         1.21295
LJ         -0.759626         3.79166        -6.24015
LJ          0.749105         1.31257        -1.40793
LJ          0.859228        -5.22733         4.72102
LJ          -5.41481        0.472171        -3.76768
LJ          -1.88548         2.49233         5.37537
LJ           5.50234        0.689039          2.8298
LJ           4.28233         4.93335        -2.41431
LJ           5.24932         2.75956          2.7316
LJ         0.0273629         3.80454        -0.12014
LJ          0.106869        -6.33915         2.37575
LJ         -0.115148         3.53099        0.989135
LJ          -1.34242        -3.48344         3.57775
LJ          -4.98714         4.97083        -5.09629
LJ          0.950804       -0.378779         3.02744
LJ          -6.29874       -0.419406        -2.54334
LJ          -4.65547        -2.38917        -6.33274
LJ           4.64331         4.98913        0.728987
LJ          -2.10416          1.4299        -4.41626
LJ           5.89687        -4.14259         6.43926
LJ          -6.11615        -3.14699        -4.14726
LJ         -0.660502         2.54866          1.4147
LJ           3.39147         4.60386        -6.29569
LJ          -1.64061        -4.41646        -0.94129
LJ             3.606          3.8271          -5.544
LJ           1.92295          4.5119        0.762132
LJ          -2.45157         2.80475         1.65308
LJ          -2.75878        -5.92406        -6.22172
LJ          -3.66841         4.38768         -5.3637
LJ         -0.977587        -3.99473        -1.75022
LJ          0.781023         2.14881        -1.95474
LJ         -0.437952          2.0705        -5.65641
LJ           1.30364        -1.02559        -5.31606
LJ           5.50345         2.97113        -4.65379
LJ           4.31622        -4.97099        -6.01979
LJ           4.58906         6.33801        -4.21171
LJ          -2.85341        -1.97167         1.07941
LJ          -5.70093        0.293724         -2.2911
LJ          -2.81744        -3.27091         5.92836
LJ           0.42358        -1.99933        0.808809
LJ          -5.79525        -3.84771        -3.29523
LJ          -4.31286         2.73091        -6.03691
LJ           3.83278         3.54327        0.557151
LJ           -5.5873        -6.32131         1.66972
LJ           5.95677        -5.29548       -0.825908
LJ          -6.06389         -2.4547        -2.40095
LJ           3.92926         1.45774         3.48989
LJ          -5.34139       0.0780341        -2.22642
LJ          -5.20998        -2.18384        -3.14889
LJ           3.89576        -2.45208         2.24647
LJ           6.01805        -1.11759        -4.65076
LJ           6.16872         0.30391       -0.635373
LJ           2.70595         3.76952         6.16172
LJ          -3.92061        -1.96079        0.821068
LJ           5.75921        -1.61197        -3.24804
LJ          -5.30859        -3.63163         2.84551
LJ           2.24467         4.20974      -0.0345025
LJ           1.00472        -3.65994         -6.1838
LJ           3.96744       0.0217852        0.664379
LJ          0.133995         4.15534        -6.38624
LJ        -0.0634581       -0.273455        -5.28628
LJ          -3.29471         1.70629        -5.17989
LJ           2.33007         4.65448         3.75474
LJ          -5.09875      0.00552372          2.6486
LJ           2.58106        -6.33427        -3.45424
