108
#Comment!
LJ          0.900092        0.177405        -2.80011
LJ           4.29684        -1.18519         3.29886
LJ            3.3829       0.0322749        0.744568
LJ           4.76649         2.61888        0.588598
LJ           -3.9407        -5.41663         -5.7191
LJ           3.75811         4.10533        0.526177
LJ          -2.76295       -0.645643         4.00532
LJ            4.3911         -1.9857        -4.25787
LJ          -2.15431         3.11301         1.95039
LJ          -3.71456      0.00335284         -6.0703
LJ          -2.87412       -0.143975        -5.12456
LJ          -3.48062         3.16453        0.367034
LJ          0.994998         6.04482       -0.676945
LJ          -4.20419        -1.62984       -0.345129
LJ          -2.04564         1.57934        -5.28528
LJ          -1.31518        -2.52747         2.82752
LJ         -0.526595        -3.77472          6.1944
LJ         -0.860908         4.76922         -5.0418
LJ          -2.60434         -2.9318        -6.23222
LJ          -3.92914         4.31289        -5.88612
LJ           -2.2483         1.82712         1.76356
LJ           3.65023         5.69643         1.19554
LJ           6.28335         1.08471        -5.76352
LJ          0.984833         -4.3963         3.06799
LJ          -2.74189        -2.35041        0.246809
LJ           5.96369         6.36397        -1.58405
LJ          -5.43849         5.93223        -1.15661
LJ           -5.3374        -0.88001        -4.91339
LJ          0.817045          6.1019         1.08845
LJ           1.47905       -0.232897         3.91857
LJ            1.6041         3.88386        -4.02763
LJ           3.51778            6.31       0.0520101
LJ           5.52458        -1.00448         4.51817
LJ           3.39083        -2.84053        -1.83767
LJ           5.56424         5.25661         1.70598
LJ         -0.574401        -1.33034        -5.06635
LJ           -4.0408         6.31523         5.21554
LJ          -4.31155       -0.254924         1.64078
LJ          -1.36106       -0.752791         5.68319
LJ          -5.85998         4.50536       -0.581011
LJ           5.20713        -2.93392         -2.4993
LJ          0.540496        -4.70007         3.89064
LJ          0.469248        -2.89437        -1.47196
LJ          -3.26628        0.131004         2.32849
LJ            5.2268         4.14647         6.09555
LJ           5.50741        0.625985       -0.389999
LJ          -5.07515        -3.29468        -1.98878
LJ          -3.12317       -0.542616         5.88992
LJ           2.44101        -1.30298         5.23973
LJ           5.23296        0.249997        -1.67398
LJ          -1.72556        -3.68275        0.016066
LJ          -2.39078         -5.9225        -3.41681
LJ          -3.11314         4.79453        -2.46528
LJ           3.38457          4.8243       -0.321017
LJ           2.37833         5.86043        -2.04619
LJ          -3.80857         5.24962         5.62768
LJ             3.806         3.18925        -3.82389
LJ          -4.40578         5.02011        -2.07391
LJ           2.66256        -4.55012       -0.122363
LJ          -4.31549        -6.35227       -0.746752
LJ          -1.42633        0.322617         5.93073
LJ          -2.79964         3.88089         2.34551
LJ          -4.83571         6.16292         5.69743
LJ           4.33063        -6.29334          1.1243
LJ           5.92956         -6.4384         2.20015
LJ           3.06359        -6.28419        -1.86499
LJ           3.45872        -1.92133       -0.930666
LJ           1.45821         2.88948        -4.02341
LJ           5.52581         -1.9645        -2.61046
LJ           1.70323         3.67417         2.90782
LJ          -1.32203        0.949583         1.20643
LJ           -3.9822        -1.31611         2.57538
LJ           6.44147        -3.39675        -2.15496
LJ          -1.67762        -3.58988        -6.42875
LJ          -4.44307        -2.80739        -3.85917
LJ           2.12346        -1.30325        -1.08138
LJ           4.85924         3.37747        -6.18428
LJ          -1.81593        -1.71368         4.61412
LJ          -5.38155        -6.45626        -4.15913
LJ          -2.31432        -4.14715        -5.47087
LJ          0.486382       -0.649226        -4.51285
LJ           4.37095          -1.184        -3.18001
LJ           3.32032       -0.209961        -1.30687
LJ            -2.403       -0.854709         5.00573
LJ          0.471878         4.75132         6.45333
LJ          -3.55255       -0.395568       0.0387959
LJ          -1.71852        0.896871         2.37889
LJ          -5.37227         3.46274         6.15555
LJ           4.19225        -1.07168        -1.60108
LJ           1.78114         5.39492        -1.40049
LJ          -5.18453         4.05321         4.32662
LJ           6.08428     -0.00424634        -2.67277
LJ            -4.191         4.91859        -5.00183
LJ           1.97083         1.61696         1.15711
LJ          -4.07451        -5.85316         -4.0399
LJ           4.78667        -2.43254        -1.64725
LJ          -2.04565        -1.88069         3.20036
LJ         -0.683565        -4.73713         3.58562
LJ         -0.556653        -4.92052        -5.53231
LJ           6.33284         4.91177        -1.17552
LJ          -2.70288        0.394752         1.51451
LJ            2.6444        0.390099        -0.11553
LJ           3.87181         1.03328          -3.558
LJ          -1.43019        0.196054        0.287025
LJ          -6.00493         3.02658         1.39189
LJ           4.49084         3.40281         1.99801
LJ          -2.13747         -3.7901        -1.76268
LJ           -5.7548         1.39492         -6.4143
