108
#Comment!
LJ          -5.47342        -5.19607        -3.58215
LJ          -2.80455       -0.308607        -3.70369
LJ          -3.29429        -1.81703        -1.85151
LJ          0.138151        -5.32127      -0.0146426
LJ         -0.117815        -2.84128        -3.10107
LJ           2.43827        -3.70051        -6.17215
LJ          -1.82293        -2.57977       -0.382891
LJ         -0.302973        -1.72629        -2.78341
LJ           4.50184        -2.54219        -4.63039
LJ          0.850215        -2.00788        -2.49146
LJ           2.28961        -5.13708        -4.83954
LJ           2.51589        -3.98465        -1.49166
LJ          -3.99392        -0.46359       -0.821055
LJ           -1.9573        0.919249        -3.76672
LJ          -2.31264         1.23026        -1.66785
LJ          -3.33683        -4.43397       -0.961452
LJ          0.508694        -1.08386        -2.97904
LJ        -0.0484768        -1.30881        -4.06489
LJ         -0.824455       -0.707647        -1.71544
LJ           1.06582        -1.14841        -2.08003
LJ            1.2304        -2.04803        -3.59402
LJ           1.84317        -0.30301        -3.75646
LJ           2.60444         1.06336       -0.277558
LJ           4.54735       -0.532996       -0.110916
LJ          -4.11036        0.669514        -4.88596
LJ          -4.70139         1.03199        -3.63526
LJ          -3.38369        0.808581        -3.91296
LJ          -0.70929         1.04042        -3.85427
LJ          -4.21894         1.30704        -6.17082
LJ          -3.69345         2.02061        -5.39532
LJ          -2.14309         2.01078        -2.96801
LJ          0.570197      -0.0882866        -3.11389
LJ           1.62075        -0.22485        -2.28722
LJ          0.220319          1.9452        -3.96512
LJ         -0.188212         3.69921        -2.22043
LJ           2.66925        0.994908        -2.27791
LJ          -1.70332        -5.90554         1.01477
LJ         -0.792107        -2.50349        -1.84988
LJ          -2.70798        -5.91797        0.623052
LJ          -1.73743        0.267768      -0.0540386
LJ            1.0413        -2.89333       -0.558594
LJ          -1.75375       -0.958027        -3.47016
LJ          -3.79981        -2.07232        0.496196
LJ         -0.191468         -2.4699       -0.169019
LJ          0.401217        -1.88625        -1.51609
LJ            5.3157       -0.218613        0.627799
LJ           2.20104        -1.19744        -1.42588
LJ         -0.691653        -2.89431         1.22115
LJ          -4.34825        -1.26009        -2.79332
LJ          -2.64188        0.522125       -0.883971
LJ           -5.6212         1.57215        0.943155
LJ          -5.61946       -0.215049         1.15603
LJ           1.04918        -4.73204        -4.25385
LJ          -1.44094         2.39534       -0.791435
LJ         -0.868671        0.841384       -0.901468
LJ          0.251361        -1.25715         1.80283
LJ          -5.83186        -2.14802         1.07141
LJ           3.68225        0.789359        -1.94006
LJ           -1.4332        -1.45595       -0.752567
LJ          -1.15272       -0.452089       -0.368744
LJ          -3.83424         3.38022         1.41794
LJ          -1.96887         3.08376        -2.63814
LJ           6.27412         4.90014       -0.413311
LJ          -3.12596       0.0576286        -0.14322
LJ          -2.65281        0.718832        0.406168
LJ        -0.0548036         3.72374       -0.166758
LJ          -1.19046         4.04952       -0.558877
LJ          0.663122         1.81551        0.229184
LJ          0.810806      -0.0323783        0.152441
LJ         0.0889479         5.07615        0.903651
LJ          0.342482        0.716416         1.81906
LJ            1.6145         4.52052       -0.477623
LJ          -1.52563        -1.54161        0.754661
LJ          -1.98404        -1.25611          1.8368
LJ          -2.93853        0.476536         3.57494
LJ          -3.40136         -4.1423        0.778471
LJ           2.09225        -5.06582          4.3025
LJ          -1.69337        -3.33853        0.886832
LJ          0.471422         -1.7343         4.12288
LJ          0.790654        -2.73784         1.29311
LJ          0.738744        -5.82124         2.25393
LJ           3.38719        -1.63766        -1.11947
LJ           1.60747         -3.0115        0.321953
LJ           1.66927        -3.84187         1.55008
LJ          -3.58529        -3.35173        0.158977
LJ          -4.24094        0.771771       -0.171331
LJ          -1.31519         1.02894        0.588921
LJ          -2.51292        -1.05116        0.391725
LJ           -3.9366      -0.0371786        0.583305
LJ         -0.650413       -0.909713         2.90284
LJ          -2.18276        -1.48644         2.96722
LJ             2.669        -1.08604         5.73667
LJ          0.983827        -1.57396      -0.0889305
LJ           2.90538         1.94816        -1.00236
LJ           2.81989          2.4016         1.99925
LJ           1.87564       -0.173877       -0.156944
LJ          -3.68601         1.12608        0.649515
LJ          -2.63668          1.7607        0.331602
LJ          -1.29135       -0.591229         5.21901
LJ          -1.95513         1.17612       -0.415906
LJ         -0.559848        0.228775         1.07757
LJ          0.833081          3.8933        0.552474
LJ          -0.10241         1.16464         3.47378
LJ         -0.141505        0.141407         2.82728
LJ           3.04992         1.21446          1.0731
LJ            2.6184        0.292829         1.70828
LJ           1.46063         0.70609         5.54016
LJ           3.44796        0.693365          3.0967
