108
#Comment!
LJ          -3.67234         6.38741         1.95203
LJ          -3.72734            2.16         5.59844
LJ          -6.04186        0.898215        -1.12973
LJ          -1.79537         2.02583        -5.30355
LJ           -2.9296         3.27074         3.42542
LJ           5.54971         2.95838         3.51789
LJ           2.31664        -3.31741        0.385981
LJ           4.52584         5.55323        -2.00242
LJ          -3.72198         1.60195        -5.96443
LJ          -6.46035         -1.1732          6.0225
LJ         -0.418841        0.180409         1.34485
LJ           3.48521         4.92698        -6.20725
LJ          -3.57559        -1.67195       -0.491986
LJ          -4.75584        -5.32482        0.945966
LJ           1.01806          2.7732        -5.39377
LJ           4.63296         2.79463        -2.06598
LJ          -3.58657        -0.32377        -2.72742
LJ          -1.73164        -3.28886       -0.493145
LJ           0.94969        -2.08625        -3.80921
LJ          -5.24392         4.75843         4.42251
LJ          0.695506          5.7217         3.48686
LJ          -1.07126        0.222982         1.25961
LJ           -4.4285        -1.52907         6.19339
LJ          -4.76695        -5.05504          1.7908
LJ          0.915722         6.05068         5.49655
LJ           1.68479        -5.15803         5.31575
LJ           5.45926         3.88077         1.80895
LJ          -6.20329         1.05176        -4.77656
LJ            2.8582        -3.90281       -0.138344
LJ         -0.877852        -4.73605        0.357845
LJ          -3.54195         3.32697        -3.40861
LJ          -3.74292        -4.36413       -0.655338
LJ           4.38704          3.2637         5.04215
LJ          -1.17153         1.89143        -3.05116
LJ          -5.30694        0.440352          5.6259
LJ          0.630713         2.18597        -2.79248
LJ         -0.520945         3.60764         3.52722
LJ          0.794417        -4.96511        -6.28951
LJ           6.22834         1.48433        -5.13908
LJ           2.58675         1.28733        -5.96484
LJ          -5.63381        -4.13611         6.27565
LJ           2.95381         2.52443         1.54721
LJ           5.79001      -0.0160037        -6.11857
LJ          -5.35161         1.01143        -5.91343
LJ          -5.36904         -3.8484        -2.06666
LJ          -1.95062         5.43042         2.70542
LJ          -1.49303        -1.80687         4.65412
LJ          -2.78073         3.12741         2.46865
LJ          -5.74583         1.22926        -4.79242
LJ            5.6084        -5.20168        -5.20738
LJ           2.10823        -3.78944        0.386554
LJ          -3.37611        -1.25622        0.576526
LJ          -2.61244         -3.0057        -2.13705
LJ           2.80302          3.0514         1.65586
LJ          0.839881         1.07311         -5.8957
LJ          0.369957          5.5613        -3.66808
LJ          -3.07853        -3.28846        -3.95942
LJ          -1.52933         4.07841         1.37368
LJ            3.2411         5.73666         4.27061
LJ           1.16855        0.583573         6.40846
LJ         -0.555414         4.95662        -3.84314
LJ          0.715052        0.268397         4.83437
LJ           6.43492         2.59926        0.867647
LJ           6.08982        -6.25761         2.52354
LJ         -0.679431        -2.89779        -4.93218
LJ           5.85521        0.996572         1.00884
LJ          -5.90229        0.912142         5.30572
LJ         0.0953193        -5.34851        -1.74298
LJ          0.946549        -6.46091         -5.6893
LJ           5.53842        -1.56933         3.71042
LJ          -4.60543         1.05613         5.82293
LJ           6.15979         2.57642         1.39042
LJ          -4.97421         0.38984        -1.43311
LJ          -4.31518        -1.25135        -5.82779
LJ           0.85646         -5.9982       -0.279864
LJ          -3.78053        0.248422        -6.08761
LJ          -1.88737         -2.3866        -3.07048
LJ           1.55982         2.68842        -2.83775
LJ        -0.0677832        -5.06385          3.7148
LJ          -2.76206         5.87571        0.703728
LJ           3.05707         3.08397          1.8661
LJ          0.635711          2.7644        -2.12454
LJ         -0.832194         4.50801        -4.13086
LJ           1.35018        -5.71905         2.94444
LJ          -3.26073        -4.04626         3.22799
LJ           4.37872       -0.405918         5.44253
LJ           5.40445       -0.194746        -4.54861
LJ          -1.14235         2.39708         1.55594
LJ           1.01667         4.12614        0.128845
LJ          0.497207       -0.678778        -2.87028
LJ           3.45239         1.67146         -3.9858
LJ           3.88107        -6.06174         1.73417
LJ           -1.6976        -6.10262        -4.67397
LJ          -4.84106         6.05838        -5.33568
LJ           3.83711       -0.496932         3.46582
LJ          -1.66059        -4.58052         0.67729
LJ           5.66918        -2.13686         3.50984
LJ          -4.45896         5.38582         -6.2471
LJ          -3.36956         1.94277         -6.0357
LJ           1.92081        0.595257         5.70833
LJ           4.80268         5.49653         5.32168
LJ          -2.01924        -4.40551         6.27529
LJ         -0.975289         6.36903       -0.186351
LJ          -2.71724         3.39332       -0.841307
LJ          -5.53317         2.27496        -1.96882
LJ         -0.939645          3.1457        -6.10482
LJ          0.362852         -4.3815        -1.37392
LJ           4.70142        -4.99343        0.543864
