108
#Comment!
LJ          -5.65501        -6.09525        -5.52545
LJ         -0.734733         5.75315         2.55145
LJ          -4.02814            3.86         1.28237
LJ           6.11872        -2.87258         4.17456
LJ          -3.95262         4.67037        -5.11041
LJ           4.34895        -4.81062         3.76274
LJ          -4.16709        -1.45728         5.62995
LJ          -1.78642         2.52222         5.81559
LJ          -2.58184       -0.138529        -1.23093
LJ            2.5045        0.664429       -0.876517
LJ          -5.60703         5.98772        -5.25972
LJ          -1.18584        -5.31708       -0.639409
LJ         -0.339951         1.35974         5.72902
LJ           2.47942         4.58963        -1.82753
LJ           6.18334        -1.56388         3.20698
LJ          -2.71673        -4.60371         6.06479
LJ           5.56853         5.64284        -2.50354
LJ           4.19571        -3.35439         3.55316
LJ           2.75782         2.83554        -3.01121
LJ          -4.46739        0.890356         4.46922
LJ          0.689465        -2.25019        -3.87492
LJ          -3.12839       -0.121065         -2.9511
LJ          0.206352         3.28008        -3.85853
LJ           -2.9277        0.779682        -2.73662
LJ           3.30703         5.89682         4.07054
LJ         -0.645733        -2.21033      -0.0817625
LJ           6.19924        -4.37766        -6.12741
LJ          -0.75922        -4.74346        -2.07227
LJ            -4.129         5.16621         2.40014
LJ           4.68629        -1.11411         2.62932
LJ           5.10883        -5.20297         2.67104
LJ           5.18567          4.1866         1.83573
LJ          0.941588         6.11065        -5.08162
LJ           -5.0628       -0.262723       -0.113808
LJ          0.724082        0.230038        -2.12937
LJ           3.49303        0.807049        -2.70309
LJ           2.82564        -4.13007        -2.65356
LJ           5.67619        -2.39879         2.10388
LJ          -1.50587        -2.60788        -2.89265
LJ          -6.02933         4.67686         1.25563
LJ          -4.26886         3.65453        -2.72215
LJ            2.8067        -1.61147       -0.606766
LJ         -0.754125         0.40149        -1.02422
LJ         -0.334648         1.91279         6.39805
LJ          -2.95818        -6.18733         5.03608
LJ          0.718032        -1.78848         1.12115
LJ          -6.28946        0.745035        -6.31473
LJ           5.04188        -4.00557         1.26125
LJ           3.89835        -1.80269        -2.35255
LJ          -1.73497        -2.67466         2.94059
LJ           6.39221        -5.20947         3.36034
LJ          -2.56396         1.29417        -3.82364
LJ         -0.652926       -0.101752        0.905174
LJ            6.1184        -3.40797         2.95633
LJ           3.42844         -2.9302         5.12272
LJ            5.0551        0.260645       -0.780526
LJ          -4.23677         -3.2103        -5.55118
LJ          -6.36582         3.31034        -6.07736
LJ           5.29037         4.84314       -0.212324
LJ           2.78264        -1.85368          5.9608
LJ         -0.169412        -2.14898        0.926272
LJ           3.57181         2.97623        -4.97681
LJ           1.50012        -3.43816        -3.57294
LJ          -5.52505         2.22765        -3.47434
LJ           1.86831         1.52823         3.66353
LJ           3.08098          5.6377        -1.89336
LJ           5.49249        0.934174         -2.0809
LJ         -0.673312        -2.42664         6.26316
LJ         -0.230439         5.70704        -3.52302
LJ           5.77069         5.36541        -3.50905
LJ           4.17203         3.74982       -0.571941
LJ          -4.29763         4.43943         -1.7472
LJ          -5.55804        -1.30203        -3.26072
LJ          -4.45183         4.36816        -3.33252
LJ           1.65082         -2.2818        -5.73675
LJ          -2.35289        -1.40577         2.46698
LJ          -5.76545          3.9115        -4.75445
LJ           6.02846         2.14519         3.26771
LJ          0.793031         1.77775         3.75948
LJ          -3.24098         2.95683        -1.82729
LJ          -3.02967           2.893         -5.5262
LJ           3.53513        -3.74888        -5.01797
LJ           1.91985         2.93489         5.26942
LJ          -6.38451         2.93635         1.02647
LJ          -3.72648          3.1059        -5.34449
LJ           2.62521        -2.09281         1.61054
LJ          -2.93297         3.95691        -4.32735
LJ           4.48535         3.34572         0.35883
LJ           4.83308         6.03342         2.19943
LJ          -4.17196        -5.83491         5.79155
LJ          0.944873         1.39265         4.74083
LJ          -4.16256       0.0400903         1.05253
LJ           2.38195          6.1038         5.62625
LJ           3.04746        -4.16428       -0.501034
LJ           5.15803         2.15059         5.16669
LJ         -0.592985         -6.1623        -5.48065
LJ           3.92801        -2.50546        -2.36481
LJ          -3.05474        -2.70256         3.20376
LJ          -6.12015         1.24878        -4.36402
LJ           3.21368        -5.34257        -5.21924
LJ           1.06963        -5.96487          2.7454
LJ          -5.17451         5.38507        -5.70027
LJ           6.01465        -5.65766        -1.35067
LJ           2.78726        -2.46021        -1.11749
LJ           6.22041         3.57485         1.10021
LJ           5.67777         -4.3434       -0.037064
LJ          -1.32527         3.00302         4.68699
LJ           5.69809        -2.95561        -1.80365
