108
#Comment!
LJ          0.646618         4.10078        0.159459
LJ          -5.71417        -3.00025         1.89499
LJ          -2.55035        -6.08371         2.84997
LJ         -0.837315        -5.27404         2.42554
LJ           1.48107         5.96287        -2.39726
LJ           2.00476        -5.62714        -4.28617
LJ          -1.75695        -2.34002          -2.182
LJ         -0.544041         3.87965         3.22326
LJ           -2.4675         4.41167         1.24737
LJ          0.971918        -4.41764         -5.3184
LJ          -1.30413        -6.22635         4.04278
LJ           3.40831        -2.33328         0.55197
LJ           3.31343        -2.83287        0.753646
LJ          -4.83578        -6.28591        -2.55296
LJ           1.49855        -5.75055        -1.07959
LJ           5.49683        -2.13198       -0.272685
LJ          -6.29422        -5.33121       -0.766046
LJ           2.66366        -2.01741         1.35015
LJ           5.33432        -4.04042        -1.47967
LJ          -6.25516        -3.58375           4.902
LJ           4.70113         4.11414        -4.54875
LJ            4.0761         3.27058         1.09762
LJ           5.69497         -3.9791         5.17212
LJ           -2.1301         5.10895        -2.54131
LJ           2.66923         1.26607         5.79645
LJ          -2.27804         4.19192        -5.28831
LJ          0.955441         2.44784         1.12987
LJ           6.45768        -2.93436         0.22149
LJ          0.189246        -6.26006         2.88427
LJ          -5.84807        -1.70768        0.711169
LJ           4.83542         -1.2894         6.19156
LJ           2.98029         1.17738        0.977439
LJ           -1.1623        -0.79672        0.934933
LJ           -2.5074         5.00375        -5.81244
LJ          -2.61596         4.06754        -2.84145
LJ           5.02811        -4.51762         1.16421
LJ         -0.672062         3.76465         5.46908
LJ          -5.98239         1.43677         4.84983
LJ           2.55998        0.815771         5.14103
LJ          -5.04777        -5.15523          5.4705
LJ           4.72573        -1.70279        -2.20245
LJ          -3.16156        -5.53822         1.71199
LJ          -2.18004        0.189198         -4.8615
LJ           3.56349         6.16214         4.70583
LJ           4.60033         4.04894         5.83341
LJ          -1.20306         6.07776          2.9212
LJ           3.27839         5.37853         1.52807
LJ           4.69796          2.3283         5.75464
LJ          -1.08048        -2.82777        -5.96447
LJ            4.0218        -5.29577         4.52875
LJ          -3.07048        0.193414         6.16507
LJ           2.80953         2.49151        -4.75381
LJ          -3.84285         2.00471        -1.50036
LJ          -6.03496          3.7172         1.13264
LJ        -0.0410348         5.61783         4.84121
LJ            5.2702       -0.600039        0.429226
LJ          -4.52812         6.25614         5.50511
LJ          -0.61814         6.15353         5.56025
LJ          -1.55228         3.76805         6.06918
LJ          0.254142       -0.843136         5.38808
LJ          0.156936        -1.27022        -1.07821
LJ            5.0642         3.92758         1.74296
LJ          -1.02359         1.59608        0.699587
LJ          -5.60036         4.83889       -0.537798
LJ          -1.97853         5.91248        -6.30889
LJ           4.19467        0.611634        -3.98192
LJ           5.24941         1.35753        -1.62683
LJ          -5.35345        -6.28039       -0.928796
LJ           3.66272         4.09252         5.84993
LJ          -3.66474        0.322365        -5.78043
LJ           2.33721         -5.6993         1.12438
LJ          -6.16395        -4.48913         5.27444
LJ           -5.3566        -4.17748          5.8638
LJ          -5.09172        -6.00693        -2.04736
LJ         -0.582468      -0.0641462          1.1551
LJ        0.00261935         -5.3911         6.18863
LJ           2.34025        -6.12631        -3.19847
LJ           2.58712         2.50061          3.6236
LJ          -3.49252         4.05365          4.3375
LJ           3.30595         6.26819        -6.20871
LJ           2.82872         4.99554       -0.951783
LJ           3.56846         2.31715        -3.88263
LJ         -0.280175         0.54543        0.668853
LJ          -2.94717         4.39858         4.71871
LJ           2.56547         5.68368        -1.69279
LJ          -5.53917        -3.70798        -4.10163
LJ          0.221995        0.236161          3.9561
LJ          -4.70401        -2.56439        -2.25148
LJ           4.45253         5.84149        -2.21223
LJ          -2.61811        -5.34254        -0.68115
LJ          -5.38428          3.4164         4.38194
LJ         -0.319149         6.11918          1.4069
LJ         -0.821025        -4.33974        -5.45447
LJ           3.57722         2.36326         5.04991
LJ          -1.68126         1.50932        0.398558
LJ          -3.53027        -2.82048         6.39387
LJ          -4.10827        -3.18151         3.50736
LJ            4.1144        0.636904        0.471356
LJ            5.1966        -5.80229         -2.2784
LJ          -4.52119         -3.2688        -1.48232
LJ          -1.86593       -0.867398        -5.54571
LJ         -0.348154          1.5418        -3.45393
LJ           5.44801        -2.34524         6.14969
LJ         -0.551965         4.54218         5.70858
LJ          -5.33811        0.751299         5.16035
LJ          0.151335        0.158554       -0.921877
LJ           4.67285        -3.43737        -3.17786
LJ          -3.18682        -1.22166        0.838923
