108
#Comment!
LJ         0.0857608         6.24571         4.03855
LJ          -1.97018         6.04383         1.26362
LJ          -1.09225         6.40092        -5.88125
LJ           5.33494        -6.40315        -5.94616
LJ           2.15378         -4.0965         -3.7417
LJ           1.96822        -2.18001         4.98984
LJ          -3.59024        -2.53424        -1.67302
LJ          -1.14117        -2.27273        -2.35601
LJ          0.832763        -2.19222        -2.28251
LJ         -0.713301        -3.60763         4.12607
LJ           6.33297         4.96691          3.7268
LJ          -4.76513         6.33033        -5.20323
LJ          0.258641        -2.65334         2.94989
LJ           5.10688         6.33219        0.868387
LJ          -4.82109         -1.0355       -0.582431
LJ           4.01905         3.47845         1.48988
LJ          -1.12733         3.14419       -0.158313
LJ          -4.71383        -4.24971        -2.93306
LJ           5.96484        -5.17719         5.80385
LJ            0.1289         4.73279        0.848577
LJ           3.31909         5.11914        -2.86335
LJ          -1.73497          6.1991        -2.33374
LJ           1.20867        0.814783         1.47677
LJ          -3.20555         3.13357        0.899837
LJ             -4.13         4.73524         5.94213
LJ            3.3224        -3.97345        -3.22501
LJ           3.88864        -1.07972         2.90301
LJ          -1.92118        -6.11992        -2.49842
LJ          -4.48098         1.17513        -2.31804
LJ            6.2524       -0.200792        -4.04614
LJ           4.11953         3.50263         5.37952
LJ          -4.99648        0.232144        -5.23354
LJ           2.00851        -5.29049       -0.687938
LJ          -3.12531          3.9384        -5.89815
LJ           4.04892        -2.82771        -1.61039
LJ           2.05305         3.06354       -0.356751
LJ           1.10884        -4.59925        0.371166
LJ          0.102633        0.814611        -3.95916
LJ          0.271052        0.908192        -2.72484
LJ           4.38512         1.15666        -2.42026
LJ          -5.89226         1.80481         2.26009
LJ          0.403449         -5.3511         5.63291
LJ           2.32846         4.67174         5.90532
LJ          -1.74212        -1.95727        -5.18691
LJ           3.28215        -2.48987         5.91482
LJ         -0.805653        -6.05396        -5.95783
LJ          0.522412         1.93495         3.67702
LJ           4.17189        0.877904        -1.47193
LJ          -1.83492          5.8334         5.54129
LJ          -3.72144         3.78646         5.97754
LJ           3.51941         1.15684        -4.64187
LJ         -0.469076        -3.26388        -4.70232
LJ          -0.62063        -5.50485         5.39835
LJ          -2.19791         1.27617         0.12911
LJ           5.83165         2.90988         6.35297
LJ           3.71383         3.41905         3.99743
LJ           5.62136        -5.25359        0.794356
LJ          -3.90167         5.27481         2.26801
LJ          0.681183        -1.45105        -5.05011
LJ          -4.03415         5.23281        -6.41069
LJ          -5.35035        -3.80524        -6.06362
LJ           5.54145        -6.11252        -6.21182
LJ          -6.18973         4.00491        -2.14926
LJ          -5.81933        0.717289        -1.65606
LJ            1.2114       -0.768008        -3.20128
LJ        -0.0553725         2.16864        -2.26993
LJ          -2.94054         1.09682        -1.19686
LJ          -3.35638         5.12088         6.38624
LJ          -1.46861        -3.83139        -6.28072
LJ          -6.42214         2.90321        0.799512
LJ           5.24219         1.29679        -6.20347
LJ           4.44804        -1.79066         5.02233
LJ          -4.94257         3.96797         3.46578
LJ           3.75472         4.77118         3.09945
LJ          -3.98724         4.97345         2.00373
LJ           3.39642         4.88679         0.54447
LJ          -1.35006        -2.45984        -1.65714
LJ          -4.24685         3.15766        -1.14791
LJ          -6.05345        -1.38805         6.33015
LJ           4.26009        -3.30103          2.8358
LJ           5.52263        -2.44609        0.660996
LJ          -5.25772       -0.359009         1.42852
LJ           6.23884        -3.51098        -2.81772
LJ           1.21658        -5.51026        -1.84539
LJ           2.43893         -4.1363        -4.05774
LJ           5.21602         3.68126        0.170093
LJ          -1.04724         3.83834          2.4148
LJ           2.87794        -5.43434         1.60899
LJ           5.71086         4.60299        -6.14898
LJ           2.21368        -5.58003         3.78207
LJ           4.59289        -3.14758         3.64938
LJ           5.83454        0.921435         6.27595
LJ            1.8093         4.77218       -0.299376
LJ          -2.59301         5.22301        -5.18928
LJ          -1.97696        -2.74296      -0.0665425
LJ           6.34595        0.396737       -0.212469
LJ           5.75101         3.57535         2.08666
LJ           5.53046        -2.10314         2.78133
LJ           5.29865         2.29535       -0.768841
LJ          0.120331         3.48319        -2.99579
LJ           4.69309        -2.80566         -1.4818
LJ          -2.55489       -0.240775        -3.23299
LJ         -0.505947        -4.46605        -1.00011
LJ          -4.65694        -2.32262        -2.13334
LJ          -6.14566         5.14404         4.68217
LJ          -4.42319        -5.78748        -2.41296
LJ          -4.44783        -5.87122         2.75539
LJ          -0.72917        0.693503         3.01139
