108
#Comment!
LJ          -5.44182         2.69107        -3.43435
LJ            -4.849        -3.45758         6.46273
LJ          -3.05603         1.21207        -1.67346
LJ           3.98496          2.0375         5.73778
LJ           2.44682        -5.24327         6.13428
LJ         0.0497521         1.32558       -0.786591
LJ          -6.33464        -4.42971         5.44143
LJ           5.69654         2.13668        0.395295
LJ           2.21453        -4.75178         2.12537
LJ          -5.57883        0.146489         3.48219
LJ          -4.11613         2.05075         4.62563
LJ          -2.84363         4.54548         5.93868
LJ           1.11384         5.20802        -5.25897
LJ          -1.81703        -2.95527        -2.12052
LJ           -3.1534         6.35268        -3.37751
LJ          0.703579         2.62819        -2.45717
LJ          -1.25644         4.69072        -4.09906
LJ         -0.864994       -0.896246        -3.63117
LJ           3.30041        -2.35987        -6.28848
LJ           5.69427         2.54048          2.1803
LJ          -4.76376         2.93769        -1.97248
LJ           4.57064        -2.51357        -3.88149
LJ          -2.40386         -1.2653         -3.4423
LJ           5.01934        -3.25243        -1.33608
LJ         -0.708891         6.34257         3.11185
LJ           5.53274         5.88942       -0.311535
LJ             5.361        -3.21104        -2.58561
LJ          -2.29693        -2.82993         2.19262
LJ           6.29636        -6.02802        -2.81866
LJ          -4.26823        -3.69099         2.59113
LJ           4.87767         -3.8796         2.12588
LJ           6.23825        -6.03581         6.42472
LJ         -0.320178        -2.75385       -0.610472
LJ           -5.4839         5.34715        -1.20797
LJ          0.845074         6.12475        -2.38193
LJ           3.29363        0.177037       -0.881731
LJ           2.85778        -1.96259        -1.65263
LJ          -5.09594         2.48098        -1.48624
LJ            3.0692        -3.85826        0.134553
LJ           3.33133         -6.0066        -5.04076
LJ          -3.13679        -3.15119         0.61126
LJ         -0.820268         5.23331         1.62732
LJ          0.628354        -4.53298        -2.61469
LJ         -0.148354        -3.31902        -0.31712
LJ          -5.25126        -1.57061         3.96402
LJ           4.03732         3.74743        -5.10738
LJ          0.641122        0.214307        -6.06987
LJ           3.40661        0.475386         5.32903
LJ            3.8999        -5.49052         1.95223
LJ          -2.93903         3.29601        0.333228
LJ           6.04809         3.16949        -3.95151
LJ          -4.36532        0.238908         4.60315
LJ           5.59259        0.644182       -0.205907
LJ           2.96847        -5.59029        -6.37873
LJ           2.31807        -4.90047         3.74133
LJ           2.81963        0.369698         4.48668
LJ           2.51668        -1.00129       -0.375622
LJ           6.07474        0.807962         4.35145
LJ           -1.8189        0.916409         3.38258
LJ         -0.867964         2.39544        -5.77817
LJ           2.10401        -3.66425         2.65204
LJ           4.98697        -3.95851           1.373
LJ           -4.6165         3.21713        -5.27514
LJ          -0.99288         4.78829         1.92744
LJ           2.14644        -2.06564         3.08585
LJ           5.93709        0.573877         1.68892
LJ           5.31093         1.53535         6.44479
LJ           5.60448         4.58902       -0.219503
LJ           1.48494         4.49456         3.77879
LJ           4.61168        -3.06387        -6.15064
LJ          -3.86441         3.87505         4.42683
LJ          -1.70288       -0.259513        0.518124
LJ          -6.38042         2.54293         6.35527
LJ           4.85635        -1.90894        -4.39568
LJ           5.64293         1.54785         5.36674
LJ          -1.18275        -6.07391         0.57931
LJ          0.642044        0.399071        -6.35194
LJ         -0.191695        0.831168        -6.19266
LJ          -1.88717         1.81133          5.6186
LJ          0.631127         3.09544         5.16503
LJ          -1.64155        0.325507        -4.30238
LJ          -1.85023          5.2638        -4.23006
LJ           -3.3456        -1.29635          -1.908
LJ           1.04622        -5.04853         5.08827
LJ           -1.1562        -3.85396         -1.1528
LJ           0.93642         3.02688         5.64828
LJ           2.48066        -4.06574        -3.89843
LJ          -4.00731         2.04379        -4.12595
LJ          0.571447         4.72419           -2.01
LJ           3.18683        0.715088        -5.67354
LJ          -5.19779        -3.29982        -2.90215
LJ           3.70574         1.11657        -2.81849
LJ          0.973506         5.19301          -1.083
LJ           5.09507         2.28487         -2.9834
LJ           3.26006        -2.21628        -1.17854
LJ           5.32301         1.26291        -1.23125
LJ         -0.316123       -0.104309          6.2783
LJ          -5.37909        -5.12197         -3.8556
LJ          -3.88679         5.49624        -5.34944
LJ          -2.42281        -5.78204          3.4521
LJ           3.51056         3.07093        0.552242
LJ          -1.33688         1.32111        -1.23578
LJ          -4.10988         1.89403        -0.46944
LJ          -4.30525        -2.48615       -0.263042
LJ          -2.08149         4.83325        -3.29729
LJ             2.192         1.77856        -2.93492
LJ           5.01786        -3.74327          1.0772
LJ           4.67585         4.16834        -3.85192
