108
#Comment!
LJ          0.153959        0.301368        -3.47588
LJ          -6.38119        0.243778        -5.69708
LJ           6.05063       -0.253894        0.151804
LJ           4.13909         4.93036        -4.28007
LJ           4.75286         1.49817        -1.78499
LJ           -6.4492         1.62712          1.0384
LJ          -1.05941        -1.46406         1.21186
LJ           2.10072       -0.629978        -3.83693
LJ          -4.04759         6.34798         4.62054
LJ          -2.43383        -4.12322        -4.90548
LJ           1.22535         3.33773        -5.63588
LJ          -4.87886         5.59684        -1.35065
LJ           3.59492           -2.58       0.0885191
LJ        -0.0510494        -5.79931        -5.57516
LJ         -0.626803         5.09782        -3.52333
LJ          -3.89912          1.1109         2.75902
LJ           6.32969        -1.36219        -4.76651
LJ         0.0954373        -1.62062         5.41241
LJ          -2.84897        -1.01668        -2.74171
LJ           5.14201        -1.42296         2.35548
LJ           -1.2854        -3.87642        -5.11212
LJ           2.25614        -5.11332         3.57567
LJ           4.93427         2.98126         3.11994
LJ          -2.17004         4.85408         3.12603
LJ          -5.67128        0.688609         3.12293
LJ           -5.6197        -2.39936          3.8731
LJ            6.3434        -3.30749         3.57025
LJ          -3.98227         2.23309         4.69779
LJ           1.72877         2.11942         3.56073
LJ          0.902942        -4.53749        0.454367
LJ          0.875545         5.02932        -4.12872
LJ            3.0399        -4.76182         4.61736
LJ            5.2911         3.34785         5.44117
LJ         0.0838764         -6.0112           -4.41
LJ            5.9524        0.287714         3.09043
LJ           2.55702       -0.893054        0.174619
LJ          -2.31159        -5.61663         6.44994
LJ         -0.278854       -0.933528         1.66975
LJ          -2.37561       -0.541352         1.51479
LJ          -5.57873         2.29163       -0.331687
LJ           3.56765        -1.18768        -1.04509
LJ           5.68481        -2.97534         5.98389
LJ          -4.17496         2.18828        -1.06141
LJ          -1.85859        -2.32574         2.03947
LJ          0.671489        -1.95696         1.74192
LJ          -4.59334         1.94306         3.97152
LJ           5.43475        -1.03309        -2.54819
LJ          -3.17219        -2.58304        -3.44366
LJ           3.99236        -4.16809        -5.65335
LJ           4.58594       0.0616644        0.902328
LJ          -4.11761       -0.525382         2.19273
LJ        -0.0431613         2.51286        -4.93143
LJ           5.92828        -2.27854         2.51572
LJ            4.3469         1.84878        0.352732
LJ         -0.459327         4.51383        -2.37717
LJ          -1.51651        -3.65526         6.22893
LJ          -3.73794         1.19806        -2.72946
LJ          -5.56363         2.24654        -3.82438
LJ           -4.9005        -6.19814         3.21332
LJ           4.05364        -1.08462      -0.0526523
LJ          -4.42558        -3.65023         5.39231
LJ          -2.28622         5.31266         5.44541
LJ           5.04397       -0.108315        -3.80089
LJ          -5.18003         1.85995        0.727944
LJ          -5.01631          4.0452       -0.170156
LJ           2.81293        -5.41605         6.26365
LJ          -4.28317         1.04966       -0.237425
LJ           2.84032         2.50642         3.26278
LJ            3.1449        -2.08545        -1.70279
LJ           3.87385         2.71199         2.41102
LJ          -1.45497        0.677511          2.5146
LJ           1.43323       -0.912848      -0.0740413
LJ          -2.19135        -3.09631        -1.02959
LJ          -1.95508         -1.8432        0.793027
LJ          -5.69641         5.06395         4.67491
LJ           5.62473         3.01751         1.25812
LJ         -0.401549        -6.12909        -2.31999
LJ          -1.12775        -2.49311          3.0349
LJ           3.03467         6.09238        -5.29282
LJ          -2.04281        -3.53911          2.7181
LJ          0.227285       -0.816987         4.87094
LJ           3.73581         -3.3394        -2.07659
LJ           1.80974       -0.850686       -0.988528
LJ         -0.713603        -1.64293         2.30033
LJ           5.54572        -5.31952        -3.67505
LJ          -5.92737         1.34459         2.03581
LJ          0.421409        0.812192         2.64535
LJ         -0.410984       -0.517254        -3.15707
LJ           4.50956        -1.86609        -2.22447
LJ          0.269175        -5.67143         5.98053
LJ           4.18732        -6.09971         4.53346
LJ           6.20903        0.295137        -1.27001
LJ           2.69131          3.1437        -2.61839
LJ           3.01356         3.12271       -0.133167
LJ          -6.01619         4.08262        -1.29491
LJ           3.99342         -2.4566        -1.09625
LJ          -5.75924           0.674         1.02584
LJ          -4.42983         5.00309        -2.25799
LJ         -0.651586        -2.83147       -0.390341
LJ          -4.85146         3.51038        -2.09053
LJ         -0.319221         1.27282          1.6746
LJ            2.3067        -1.73513       -0.532572
LJ            2.1198       -0.298928         6.00313
LJ         -0.460415         1.41367        0.576566
LJ           4.37545        0.813639           2.219
LJ           3.99752         1.84932         1.66789
LJ          -6.32015       -0.381607        -2.79008
LJ           4.36116         1.83477         2.82005
