108
#Comment!
LJ          -6.11802        -6.12247        0.399056
LJ          -2.96426        0.560418        -6.41663
LJ          -4.95112        0.890119         2.56196
LJ            4.5554        -3.77979        0.421032
LJ           5.48058        0.169293       -0.443082
LJ           2.83303         2.08946         4.19662
LJ          -5.75474         2.54179        -4.06907
LJ          -5.27131         3.32274        -1.36366
LJ           4.08594        -2.47082        -2.94728
LJ           -5.0722         6.09414         6.38081
LJ            -4.413       -0.301443         2.04499
LJ           4.48598        -1.31252        -1.91494
LJ           5.92288         3.40028         4.00617
LJ          -6.24707        -5.46227       -0.212529
LJ          -2.29433        -5.80847         1.88244
LJ          -6.21064        -2.82064         3.24029
LJ          -5.16058        -1.52263       -0.150189
LJ           1.36334       -0.422299        -4.46693
LJ           1.84472       -0.164831         -4.5068
LJ          -1.64226       -0.197224        -1.23812
LJ           5.40913       -0.838318         1.30551
LJ           4.56268       -0.439704         1.43087
LJ          -0.16122        -1.46779         -1.1913
LJ           5.19719       -0.774586        -1.45707
LJ           2.25931        -6.00503         6.06439
LJ           3.57366        -2.64123        -3.66301
LJ          -5.47083         1.59546        -2.31332
LJ          -4.35548         3.05257        -5.88955
LJ           3.52591         2.78985         1.92193
LJ          -3.31714         4.92806          2.5898
LJ           4.05855         1.66968            3.61
LJ          -3.97729        -3.43968        -6.27458
LJ           1.37693       -0.544466       -0.838552
LJ           2.86571         3.27151           5.596
LJ           4.44563         4.82637         5.37491
LJ          -2.35424         3.54252        -3.70897
LJ           6.07599        -1.86605         5.35132
LJ           5.11028         5.98484         5.99114
LJ           3.93834        -3.15232        -3.44653
LJ          -4.94356          5.8288         3.45455
LJ         -0.111657        -0.89667         2.81679
LJ         -0.464197        -4.75189         2.04741
LJ           -5.0409        0.758507        0.571621
LJ           2.63529        -3.60595         6.34215
LJ          -2.87683        -6.31344        0.436762
LJ          -2.32721        -2.58718        -5.04813
LJ           3.98274         5.96242        -3.67114
LJ          0.399162         4.69113        -4.26764
LJ          -1.98911       -0.476059        -3.98802
LJ          -2.94897         2.31195        -0.08816
LJ           3.51571        -5.76803          -5.594
LJ          0.612677        -5.06927       -0.192746
LJ         -0.496495        -3.02458        -5.53316
LJ           1.00896         2.71183        -5.85546
LJ          -4.19645        0.432324      -0.0811603
LJ          -5.86604        -2.71292         3.15883
LJ           3.91234         3.14989        -5.66088
LJ         -0.848169        -5.31372        -1.36438
LJ          -4.12548       -0.433879        -3.68887
LJ          -3.53596       -0.567156         3.25422
LJ           3.34648         -1.7833         4.67235
LJ            6.1307         4.39824         1.09822
LJ          -1.25738        0.822859        -2.39418
LJ           3.48625        -4.52782        -4.25349
LJ           6.05101         6.17502          1.9026
LJ          -1.20656        -5.95579        -3.19976
LJ          -5.70245         2.10419        0.676294
LJ            6.2111          1.6248         0.90284
LJ           2.37787         4.12795         5.36481
LJ           3.42467        -5.35273         1.38506
LJ            3.9215        0.832857        -1.97272
LJ           1.45735         5.49096          -4.415
LJ           3.10974        -2.68112       0.0383026
LJ          -4.68655          4.4576          3.9149
LJ           0.94328           2.386          5.3415
LJ          -1.43366        -5.25395         6.24741
LJ          -1.06594        -3.02053        -5.78373
LJ          0.199545        -4.49119         -3.2621
LJ           3.05544         4.66515          1.9163
LJ          -5.04723        -3.44492         1.73503
LJ           3.22344         3.74952        -1.26882
LJ           3.92718         2.02411        0.392533
LJ           3.06743        -1.19686        -3.95371
LJ        -0.0188749        -5.92303         6.45594
LJ           2.72169        -4.19475        -5.78888
LJ           2.53822         2.37076         3.43912
LJ          -4.55453        -6.15313        -5.12488
LJ          -3.82422         3.31063        0.441839
LJ           5.87636         -2.9575         2.64952
LJ           3.39172        -2.47568        -3.87086
LJ         -0.873858        -5.07547          3.2229
LJ           3.77041         1.71526         5.78623
LJ           4.61899         2.14019         2.28725
LJ          -4.93521          2.1999        -0.28606
LJ          -1.09076         2.27364        -3.49637
LJ           4.22332        -1.41365       -0.216593
LJ         -0.975358        0.372103         2.37808
LJ          -4.34004        -1.40381         5.49321
LJ           5.27563         1.25748        -1.65105
LJ          0.634543         4.97827      -0.0361316
LJ           4.39583         3.79948          4.6386
LJ         -0.864118        0.545938         6.00835
LJ         -0.912164        -2.15899      -0.0754489
LJ          -1.55727         3.21372         1.86113
LJ          -3.61388        -2.43149         4.91655
LJ           -3.2862        -5.23244         5.09482
LJ           6.12249        -4.51416        -1.58889
LJ           2.30525         4.44474        0.980849
