108
#Comment!
LJ          0.307198        0.360947        -3.08241
LJ           6.27351       0.0144966        -6.13274
LJ           5.76015       -0.111629         0.19822
LJ           4.63266         4.57707        -3.44898
LJ           5.29817         2.56924        -2.40626
LJ           6.15347         1.74819         1.03223
LJ          -1.43714        -1.34235         1.60351
LJ           2.48141       -0.787849        -3.84442
LJ          -4.24638         5.91704         3.99515
LJ          -2.94259        -3.95655        -4.85827
LJ           0.78125         2.91984        -5.64813
LJ          -4.51157         5.45517       -0.993688
LJ           3.27446         -3.3193       0.0734201
LJ         -0.575144         -5.5372        -4.80656
LJ         -0.672563         4.77263        -3.88911
LJ          -3.27191        0.500714         3.38837
LJ          -5.67203         -1.2852        -4.91412
LJ          0.031224        -2.41482         5.74741
LJ          -2.75094        -1.12223        -3.13854
LJ           5.95788        -1.88181         2.93677
LJ          -1.64385        -4.03896        -5.35365
LJ           2.59414        -5.69634         3.20758
LJ           5.27434         2.67459         3.22576
LJ          -1.58618         5.71195         2.79876
LJ          -5.73387        0.913105         2.62586
LJ          -5.45846         -3.1807         3.31582
LJ           6.24816        -3.54057          2.7083
LJ          -4.01952         1.79904         5.14752
LJ           1.24514         2.21107         2.93858
LJ          0.173819        -3.13007        0.561897
LJ           1.07755         4.97805        -4.24068
LJ           3.05341        -4.89006         3.85889
LJ           5.28548         4.01061         5.10249
LJ           0.65772        -5.51235        -4.09923
LJ           5.71316         1.46447         2.20633
LJ           2.31625       -0.820611       0.0395485
LJ          -2.08668        -4.96028        -6.08056
LJ          -0.28627       -0.732588           1.756
LJ          -2.52281       -0.949236         2.06039
LJ          -5.86472         3.09155       -0.512495
LJ           3.90445        -1.22319        -1.27295
LJ           5.06141        -3.18652          5.6894
LJ          -3.57198          1.5284        -1.39771
LJ          -1.94858        -1.84951          2.3745
LJ          0.230153        -1.42332         2.48615
LJ          -4.85403         1.60156         3.58364
LJ           5.87692        -1.59229        -2.61088
LJ          -3.40607        -2.45963         -4.1355
LJ            3.5764        -4.29651        -5.99821
LJ            4.4551       -0.128203         2.18544
LJ          -3.50291        -1.16361          2.2804
LJ         -0.722578         2.87525        -4.57943
LJ           6.42098        -3.13457         1.74058
LJ           3.88607         2.47286        0.213371
LJ        -0.0961352         4.67037        -2.23967
LJ          -1.70678        -4.03045         6.38974
LJ          -4.33463          1.6934        -2.29007
LJ          -5.29617         2.58027        -3.78604
LJ          -5.33655           6.321          3.6677
LJ           2.89603        -1.74804        0.123911
LJ          -4.23762        -3.00437         5.50252
LJ          -2.25316         5.19355         4.96574
LJ           5.35933         1.03142        -3.80022
LJ          -5.73587         2.07398        0.979936
LJ          -5.60397         4.14272       -0.429495
LJ           3.12309        -5.38347        -5.74104
LJ          -4.74581         2.32547         0.16169
LJ           2.69825         2.56235         4.02684
LJ            3.4454        -2.01711        -1.95087
LJ           4.02688          3.0017         2.24172
LJ          -1.10408        0.535484         2.15884
LJ          0.837835       -0.719371        0.384983
LJ          -2.29084        -3.25737        -1.56639
LJ          -2.52077        -2.33588         1.32383
LJ          -5.93679         5.53714         4.74573
LJ           5.07698         1.81302         1.43571
LJ          0.250477        -5.08444        -1.03784
LJ          -1.01654        -2.60653         3.07285
LJ           3.78584         5.97702         -5.1599
LJ          -2.52454        -3.18603         2.95897
LJ          0.355054       -0.876042          4.5026
LJ           3.67696        -3.24127        -1.96684
LJ           2.13964       -0.294959       -0.894681
LJ         -0.758552        -1.47527         2.49362
LJ           5.11032        -5.56316        -4.05917
LJ          -5.81318          1.2445         1.50813
LJ        -0.0876206         0.88432         2.69513
LJ          -1.08621        -1.69967        -3.18182
LJ           4.37003        -2.30278        -2.70391
LJ           0.52427        -5.91676         5.09649
LJ           4.97855         5.81567         4.64839
LJ           6.09684        0.108929        -1.44138
LJ           3.02634         3.65649        -2.85796
LJ           3.01392         2.69495       -0.227909
LJ           -5.9707         4.10717        -1.59351
LJ           4.14336        -2.30433        -1.11981
LJ          -5.30924       0.0306439         1.61232
LJ          -3.82207         5.31038        -3.18023
LJ         -0.526924        -3.19338       -0.505887
LJ          -5.06472         3.57176        -1.83124
LJ          0.157638         1.37016         1.69339
LJ           2.54065        -1.37147        -1.02666
LJ           2.34658       -0.121952          6.4415
LJ         -0.515714         1.43316        0.694802
LJ           4.56961        0.943448         2.49605
LJ           3.55244         2.06627         1.34196
LJ          -5.70221       -0.708966        -2.76887
LJ           4.89836         1.70988         3.74848
