108
#Comment!
LJ           -3.8309        -3.79357         3.89344
LJ          -5.78019         2.47667        -4.36078
LJ             4.535       -0.840056         3.71605
LJ           5.90042         3.44791          4.2197
LJ           3.94933         2.33129        -3.68176
LJ         -0.421359        -0.61888        -5.72859
LJ          -3.01347         6.01791         3.54516
LJ         -0.202114        -5.38552        -5.69189
LJ          -4.18263        -4.63669        -5.85647
LJ          -2.93764       -0.147598        -2.85806
LJ           3.80425          5.0652        -4.45255
LJ           2.28009         5.70512         3.76204
LJ          -3.89787         6.37666        -5.75753
LJ           4.93593         1.00317         2.47482
LJ           3.89038           -1.21         5.38842
LJ          -2.54036        -6.21606          2.1148
LJ           4.16494         2.15287         3.57195
LJ          0.448089         4.20546        0.779751
LJ          -2.86259       -0.808547         -4.1806
LJ         -0.313389         3.57164       0.0809677
LJ          -1.62043          3.6671         3.81961
LJ           2.19715       -0.980844        0.272676
LJ          -1.23131       0.0041935          1.3879
LJ           4.36932        -6.04683         4.62394
LJ           5.54468       -0.623971        -4.77912
LJ           3.36828         -3.9982        0.833444
LJ          -2.19256        0.837341          1.1763
LJ          -6.12327        -2.08923           1.364
LJ           1.74949         1.04061       -0.448297
LJ           3.77327          1.2634         4.47648
LJ          -4.27339          4.2185       -0.581882
LJ           4.49966          5.2224        -6.37608
LJ          -5.60617        -4.78626        0.326211
LJ           5.35362        -2.36825        -1.23262
LJ           3.56024       -0.647005        -3.93305
LJ           0.15893         6.28858        0.238451
LJ          -6.25053         5.27416        -1.77847
LJ            2.1528        -3.26831       -0.368916
LJ           -5.0301        -5.89191        0.459184
LJ          -4.17859        -4.63462        -0.97889
LJ          -2.33654         4.63117         -4.9892
LJ           2.12023       0.0942798          5.2165
LJ           0.50798       -0.891076        -5.33249
LJ            2.7589         2.94711        -5.01791
LJ           2.05866        -6.06555         1.75895
LJ           4.88315        0.609031        -4.37555
LJ          -1.91309        -5.57566         3.53635
LJ          -4.76586          6.4049         3.94833
LJ           5.22092       -0.262074        -4.18401
LJ           3.44154        -2.68993        -2.21933
LJ          -5.86345         4.24853        -3.63944
LJ          -3.96061         4.55732        0.153605
LJ          -0.35859        -6.12649         6.21253
LJ          -2.11604          2.3164        0.780482
LJ           5.42322         4.80882        -2.93814
LJ          -5.36195         6.17255        -1.41649
LJ          -2.99485        -3.82089       -0.668757
LJ          -4.16325          3.0317         4.89833
LJ          0.683265        -3.16497         1.14873
LJ          -6.18956       -0.234868        -5.55057
LJ           5.07692         4.22744         -1.4042
LJ           1.26901        -4.95109        -2.04596
LJ          -5.77135         3.03272         2.50226
LJ           3.14892         4.70651         6.36946
LJ           4.94248         2.97715         -5.6968
LJ           -4.8497        -2.65983         3.52408
LJ          -3.79817        -6.40738         1.64211
LJ          -2.58386        -2.26345        -2.58737
LJ          -1.37668         4.10283         5.96698
LJ          -1.57452        -2.11465         3.16242
LJ           -4.4173         5.95288        -2.29658
LJ           1.28144      -0.0214971         2.99225
LJ          -4.73205       -0.427978          4.0807
LJ          -2.01847        -2.43083        0.962027
LJ           -4.2533        -1.63379         3.63445
LJ      -0.000905963          4.9058       0.0298001
LJ           4.50331        -3.63978        0.143366
LJ          -1.12345        -3.52837        0.717637
LJ          -5.14035        -1.14101         5.10032
LJ           3.41983        0.774471       -0.499252
LJ         -0.966618          2.8513        -6.31034
LJ         -0.991871        -6.08887         5.85275
LJ          -3.45593         -5.4273         4.83397
LJ            6.2356          1.4644         2.60716
LJ           4.65369         2.08626        -2.34151
LJ           -4.9015       -0.862877         4.21266
LJ          -1.83813       -0.229276        -4.12846
LJ           5.41087        -2.96577        -5.73911
LJ           2.17411        0.285442        -1.13064
LJ           2.07136        -5.58984         1.19835
LJ          0.305065         5.47391       -0.688564
LJ           4.05448        -1.77207         3.45933
LJ           5.71145        -1.36883         4.43974
LJ           5.96869        -4.79938        -6.04516
LJ          -5.21804         6.36962        -2.81432
LJ           0.13515        -2.93736         3.14844
LJ          0.250445        -3.87568        -4.61078
LJ          -2.12187         2.60636         4.84647
LJ          -6.06024         1.31633        -5.04071
LJ          0.825982        -5.34785         5.25509
LJ           5.26414        -1.40479       -0.742243
LJ           3.24031          3.0946        0.255029
LJ         0.0170056         4.86749         2.58199
LJ          -4.86176       0.0442881         5.74808
LJ          -1.38311         -1.0102         6.23324
LJ           1.37744       -0.271053         3.85423
LJ         -0.420407        -1.98836         4.65504
LJ           1.72584         1.86496       -0.766527
