108
#Comment!
LJ          -4.40977        -4.30584         -3.3625
LJ          -2.31833        -1.27234        -3.41191
LJ          -3.17952        -1.90022        -2.41633
LJ          -0.54154         -4.7443       -0.860324
LJ         -0.241946         -3.2778        -3.03698
LJ           1.58114        -2.96042         -4.9675
LJ            -1.583        -2.05098        -1.04572
LJ         -0.250936        -2.01596        -2.47957
LJ            3.4882        -2.85328        -4.08692
LJ          0.852474        -2.47441        -2.62884
LJ           1.40398         -4.4175        -3.89664
LJ           1.59747        -3.47517        -1.37428
LJ          -3.73881        -1.01664        -1.21235
LJ          -1.99656        0.182286        -3.62777
LJ          -2.35954         1.32928         -1.6491
LJ          -3.00572        -3.10032        -1.13997
LJ          0.437157         -0.4538        -2.71926
LJ         -0.383885        -1.14256        -3.65553
LJ         -0.622505       -0.505084        -1.58089
LJ           1.11065         -1.1236        -2.06415
LJ           1.36984        -1.37064        -2.97295
LJ           1.26084       0.0893701         -2.9167
LJ           2.16813        0.250551       -0.995094
LJ           3.88915       -0.650724        -1.06359
LJ          -3.89891         0.74816         -4.3672
LJ          -4.13846         1.68094        -3.29282
LJ          -3.18795         1.11586        -3.01432
LJ          -1.14988        0.551403        -2.96945
LJ          -3.05952         1.36561        -5.17655
LJ           -2.1086         1.84787         -4.3036
LJ          -2.26289         2.01373        -3.07273
LJ        -0.0311531        0.969877        -2.87073
LJ          0.729518        0.117443        -1.47164
LJ          0.534393          1.6122        -3.43034
LJ         -0.307887         2.45385        -1.88256
LJ           2.30997         1.43383        -2.26789
LJ           -2.0446        -4.74982        0.576206
LJ          -1.37825        -3.04301        -1.59234
LJ          -3.36838        -4.82099        0.166757
LJ          -1.48842        -1.07686       0.0539449
LJ          0.722322        -3.18273        -1.01014
LJ         -0.878537       -0.911396        -2.77186
LJ          -2.88951        -1.41117       -0.610356
LJ        -0.0969496        -2.29868      -0.0949212
LJ          0.440783         -1.6257        -1.26033
LJ            4.4529       -0.785919        0.202678
LJ           1.93824        -1.73518       -0.879053
LJ          0.193012         -3.0957        0.915009
LJ          -3.77842       -0.494535        -2.45984
LJ          -2.00759        0.433317        -1.05498
LJ          -5.17581         1.05128        0.520308
LJ          -4.45066        -0.79978      -0.0155716
LJ          0.764973        -3.12904         -3.6632
LJ          -1.08801         1.54145       -0.931757
LJ         -0.974133       -0.111859       0.0134698
LJ          0.181217        -1.12242         0.68251
LJ           4.63694         -1.9951       -0.181079
LJ           2.92148        0.820891        -1.48795
LJ         -0.861698         -1.2891       -0.686701
LJ          0.296482       -0.903923       -0.271762
LJ          -3.55062         2.47529        0.389992
LJ          -1.76542         2.12446        -1.67815
LJ          -5.47694         3.86493       -0.381104
LJ           -2.7953       -0.299419       -0.332633
LJ          -1.86421        0.446868        0.178404
LJ          0.129431          3.0991       -0.822839
LJ          -1.53707         2.48474       -0.591448
LJ          0.409275         2.11887        0.120364
LJ          0.751492        0.518746       -0.435057
LJ          0.680489         4.24129        0.135178
LJ          0.428564         1.04507         1.23751
LJ           1.48194         3.07369       -0.327416
LJ          -2.03852        -2.00727        0.709293
LJ          -2.09817        -1.77092         1.76255
LJ           -2.5286         -0.3209         3.30703
LJ          -2.73763         -4.0843         1.13759
LJ           1.03273        -4.45165         3.10395
LJ          -1.43008        -2.90658        0.865574
LJ          0.119756       -0.671041         3.44684
LJ          0.792528        -2.79982         1.81442
LJ          0.814266        -4.65752         1.59119
LJ           2.73561        -1.96431       -0.263571
LJ            1.7336        -2.72924         1.00306
LJ           1.69615        -3.93154         1.76398
LJ          -3.07495        -2.06851         0.42944
LJ          -3.94449        0.454272        0.128164
LJ           -1.7663         1.16965          1.3243
LJ          -2.58392        -0.73606        0.978166
LJ          -2.74784        0.279096        0.710736
LJ         -0.625679       -0.791039         2.11026
LJ          -1.88049       -0.875225          2.6973
LJ           1.76264        -1.16023         4.58543
LJ          0.927261        -1.90917        0.273155
LJ           2.76147         1.39636       -0.692328
LJ           2.19741         1.77738         2.33571
LJ           1.68673       -0.300343        0.131709
LJ          -2.92824         1.36427        0.311211
LJ          -2.22374         2.24759        0.778792
LJ          -1.71684        0.141665         3.78919
LJ          -1.49369          1.4379        0.180221
LJ         -0.234658        0.271858         0.89885
LJ          0.541117         2.97597        0.646854
LJ         -0.391032         1.70049         3.09795
LJ         -0.586509        0.279957         3.17068
LJ           2.24708          1.4993        0.922658
LJ           2.88206        0.675289         1.50479
LJ           0.81746        0.454592         3.83878
LJ           3.19916        0.731944         3.06922
