108
#Comment!
LJ          -3.15294         3.03604         2.76249
LJ          -2.74169         5.22314        0.721506
LJ          -6.19054         0.64494        -3.32728
LJ           5.24872        -5.32493        -2.73984
LJ             3.831        -0.47566        -4.60304
LJ          -2.64169         5.42379        0.806746
LJ         -0.286795       -0.876486         -0.0103
LJ           6.20703       -0.233943         1.75213
LJ          -3.66385        -5.70664         3.93469
LJ           1.38583         1.32456       -0.222631
LJ           2.72387        -2.67719          1.5861
LJ          0.223947        -1.55908         3.49309
LJ           3.01552       -0.221849         -3.2254
LJ           2.51991        -2.78999        -2.84204
LJ         -0.315882          5.7042         5.91899
LJ          0.225109        -3.31821        0.270306
LJ          -1.81639         5.83156         5.59422
LJ         -0.663996         1.89383        -4.33709
LJ          -5.74359         5.74663       -0.414865
LJ           5.36756         6.20057         5.54623
LJ          -1.05706        -4.43082         1.19906
LJ           1.14227         2.28225        -5.18839
LJ           1.53016        -1.69721        -4.84553
LJ          -5.47091          -2.393         3.25761
LJ         -0.118345        -6.02319         2.22022
LJ           4.63855         6.42313        -5.18106
LJ          -2.31291          3.2452         5.25048
LJ          -1.82343        0.919748        -5.57237
LJ           4.50707         6.06711       -0.985922
LJ           1.86844         -2.2043        -3.23499
LJ          -5.04933        -2.26707         2.23236
LJ           5.55197         2.84856         4.03665
LJ           2.49754        0.165657        -4.38756
LJ           4.77574        -2.25134         5.66579
LJ          -4.60786        -4.04743        -3.58801
LJ          -5.85065        -4.22889        -1.22194
LJ          -2.73039        -4.75252          -3.781
LJ          -3.53288         5.22621         2.83551
LJ          -5.73252        -5.95577        -3.09956
LJ           2.38475        0.428751         2.66683
LJ          -2.91081        -4.26683        -5.55916
LJ          -4.13202         -4.3602         4.43422
LJ          -1.12268        -5.32212         4.61834
LJ           4.49187         2.09247        -5.21556
LJ           4.26151        -1.27066         5.64143
LJ          -2.58902        -2.39637         4.09159
LJ           2.10706         1.38949         4.26942
LJ          -3.96084         2.08992         2.91692
LJ           1.31997          5.4369         1.77481
LJ           4.30202        0.548723        -2.68591
LJ          -5.36537        -1.67784         5.58626
LJ           2.81327        0.587716        0.255077
LJ           2.94679         4.17311         2.13499
LJ          -6.04801        -1.79327         -0.3124
LJ            2.0679         4.17671         2.17339
LJ          0.918092         6.41334         5.00564
LJ          -2.32167        -3.94512        -0.52668
LJ           -4.8951        -4.00016         4.35523
LJ          -4.77959         3.92512         5.17562
LJ          -4.51256         4.24322         -2.9785
LJ          -3.36725        0.215798        -2.51064
LJ           3.87097        0.921943         1.79811
LJ           2.98225         -2.7232         3.90213
LJ          -3.08278          4.0122        -2.67093
LJ         0.0770816        -2.72784         2.87398
LJ           1.63724         4.95695        -5.93673
LJ           4.40786        -1.16722        -3.65888
LJ            1.2537        0.377722        0.476359
LJ           5.49518         6.08337        -5.23419
LJ          -3.21658       -0.834742        -2.08562
LJ           5.14175        -4.60198        -0.34751
LJ           3.62207         4.37685         1.64963
LJ           5.75619         2.81183        0.809038
LJ          -5.05064         6.23544        -2.50747
LJ          -4.79435         1.36455         -6.3623
LJ          -1.00765         5.95654         5.75815
LJ          0.619846        -5.38384        -2.34367
LJ           3.79639         3.02816         6.36397
LJ           2.86173       -0.616442         3.03956
LJ            2.8755         4.06615         4.20859
LJ          -2.41974       -0.766767         2.51507
LJ           5.49372         1.06196         6.38983
LJ          -4.08007       -0.149775         1.98058
LJ           2.57787         3.94931         1.67314
LJ          0.380428        -3.06478        -5.97055
LJ           3.19333        -3.91465         4.34957
LJ           -5.9489          1.8276          2.7967
LJ          0.793223        -5.09687         1.80281
LJ           0.67704        -5.29693          5.2522
LJ           -3.9399         6.36005         5.62385
LJ           -3.5714        0.677976         4.48508
LJ          0.386262       -0.384376         1.12698
LJ          -1.18987        0.406985         5.68803
LJ           3.98969         4.05499         5.21387
LJ           2.60555        -1.69328        -3.79222
LJ           5.62202       -0.473709         2.54938
LJ          0.699122         5.04838        -2.94198
LJ           4.67354       -0.452984         5.37036
LJ           3.05579        -3.32915         3.49934
LJ           5.44779        -1.67238          4.6831
LJ          0.425292         5.95021        -5.05728
LJ           3.68999        -1.63875        -6.26092
LJ           4.36612       -0.938522         5.91058
LJ           4.08979       -0.709321          5.5805
LJ          0.823921         5.03957        -4.60343
LJ           4.98471         5.49815         1.16203
LJ           2.47361        -4.16012         3.20766
LJ           1.10005          2.8386        -2.60556
