108
#Comment!
LJ           4.97469        -2.92917         1.68081
LJ           0.61874        -1.80066       0.0979123
LJ           -1.8213        0.980492        -1.49888
LJ           6.02496          5.3255         2.12791
LJ           2.49375         1.89352        -1.07893
LJ           4.40544        -2.44417         5.84613
LJ            4.4964        -5.34838         4.40692
LJ          -3.91509         3.75356         2.74198
LJ          -1.56138         3.58122        0.902345
LJ         -0.153814         1.89249         2.69631
LJ         -0.794019         3.45401         5.95697
LJ          -2.43156        -3.45397         3.88073
LJ          -2.41033         3.31121         4.68064
LJ          0.116156         1.64135         2.81365
LJ          -5.95696         3.22275         5.68034
LJ          -4.61863         4.46036         1.07723
LJ           6.29901        -2.76982        -1.91579
LJ           4.69617       -0.234114         2.22163
LJ          -6.23761       -0.154992        -5.53782
LJ          -2.69234         2.85217        -2.56731
LJ           2.54102        -3.16862         -2.9919
LJ          -1.48941        -5.79107         5.17678
LJ          -2.24214         3.62773        -3.68698
LJ           2.61553         2.61544        -4.68344
LJ           3.67007        0.471043        -3.27951
LJ           6.45442        0.091059         3.67706
LJ          -1.02165         3.56344        -5.20793
LJ          -6.16243        -0.66297        -6.14533
LJ          -2.43491        -2.77658         5.93537
LJ          -4.39008        -2.54651        -1.24267
LJ          -1.47477        -4.22585        -2.22462
LJ          0.737045        -3.43254         5.70846
LJ          -5.93821         6.03806        0.144792
LJ         -0.294549        -1.44399         3.34429
LJ           1.32136        -3.72497        -5.52113
LJ         -0.460981      -0.0373048        -1.88844
LJ          -4.34848       -0.465383        -4.75854
LJ           4.09647         5.97346        -1.44642
LJ           5.12952        -2.90765        -3.30377
LJ           3.85386        -5.95381         4.81034
LJ          -1.13007         2.16233        -1.30713
LJ         -0.615907        -3.48163        -3.93672
LJ          0.439801        -4.40916        0.485639
LJ           2.61585        -5.80516         1.18042
LJ           3.52746         2.98348        0.193944
LJ          -4.14065        -6.05036        -1.94457
LJ           1.67266        -2.00489        -0.86367
LJ           5.45776         2.84676       -0.683497
LJ           5.39012      -0.0410902        -1.60585
LJ          -2.27753         -2.1333       -0.829378
LJ          -2.95907         2.21167         3.69767
LJ           5.94882         1.24812        -1.07871
LJ           5.27172       0.0680934         5.15152
LJ           4.80888        -1.37033       -0.475573
LJ          -3.44163        0.857547          6.3362
LJ          -5.56198         0.51649       -0.759265
LJ         -0.189076        -5.39305        -6.20241
LJ           1.96993        0.385206         5.98215
LJ          -1.59395        -2.75433        -3.94655
LJ          -3.71919        -4.42882         4.85028
LJ          -5.48572        0.584066          1.6047
LJ           5.19707        0.279809        -5.49665
LJ         -0.857645        -1.76363        -5.23226
LJ          0.769915        -4.75194        0.753035
LJ           5.09631         1.12659         2.89515
LJ          -3.80079         1.29042         5.23534
LJ           6.20472         4.22357          2.0693
LJ           1.76359        -1.73037          3.7719
LJ          -1.72401        -5.80392         4.59508
LJ         -0.352173         2.49509        -3.58961
LJ          -2.42472         2.35859        -2.29514
LJ           2.21559        0.668818        0.938451
LJ           5.62369        -1.68355         1.06013
LJ          -1.67837        -5.44084         -3.6672
LJ           4.74201        -5.12943        0.690193
LJ           2.11806        -5.44192        -4.96111
LJ          -1.28695          4.5455         1.27128
LJ           -2.4753          1.9461        -2.38403
LJ          0.493374        -6.08378         5.54807
LJ            5.5733         1.87835        -3.97229
LJ           1.13989        -2.47764        -5.60198
LJ          -3.66969         2.11769          4.0324
LJ           2.51465        -5.31466         2.82164
LJ           1.48004        -1.76109        -2.55651
LJ           5.25135         1.32155        0.988236
LJ          -5.65471         2.53969         2.70319
LJ           4.16413         3.18106        -1.93343
LJ         -0.804136       -0.860384         5.81909
LJ           3.61918       -0.661044        -0.88973
LJ         -0.123782       -0.455304         3.36966
LJ           4.41246         2.07099        -3.79664
LJ           6.38251         5.13375        -4.88958
LJ          0.239313        -3.57738        -2.17065
LJ          -5.28653         1.76017        -1.40398
LJ           3.90308         1.73795        -6.45504
LJ          0.376654         5.17268        -5.25755
LJ           3.70746          -4.035         2.55529
LJ           6.01107         3.92826         2.97579
LJ           4.43179        -1.81277         3.10631
LJ            2.5829         1.27715        -2.52767
LJ          -6.42956       -0.983257         -1.1541
LJ          -5.68234         3.67079        -4.97414
LJ           5.72521         2.39331         5.17459
LJ           1.21338       -0.396945         3.23329
LJ           1.45263         4.25286         2.59004
LJ          -4.34885         1.31933         -3.6907
LJ           1.84563        -1.44835         1.95991
LJ         0.0524134         3.36289          -3.851
