108
#Comment!
LJ           6.20652         3.98747         4.74192
LJ          -5.35754         3.38795         -2.4908
LJ          -5.09873         -1.8886        -5.50194
LJ          -1.58157       -0.342226        -2.53468
LJ          -6.05054        -3.15855        -1.58938
LJ          -2.31909          3.1344         4.13771
LJ           1.86374       -0.919646        -2.84609
LJ          0.975853        -6.07321         1.02737
LJ            3.6919        -6.43628          2.7654
LJ          -5.55774       -0.669276       -0.199086
LJ          -6.35383        -4.20753          1.9235
LJ          -3.47357        -1.92153         4.85455
LJ           5.93897        -3.35732         6.19922
LJ          -1.32186         1.23646        -6.29213
LJ           3.44306        -3.63479         6.18344
LJ           5.06203         1.14254         -2.5313
LJ           2.13023        -1.44842        -2.59481
LJ          -4.97226         2.01855         4.52901
LJ          0.523949        -4.99479        -3.75265
LJ         -0.961211          0.6925         4.83607
LJ          -2.09804        -1.25566         2.67697
LJ          -2.68006        -1.69398        -3.61455
LJ          -5.54622        -4.30261         3.59043
LJ         -0.431556       -0.353739        -5.22948
LJ           1.43553        -3.90681         2.13102
LJ            1.1936         6.30145       -0.298409
LJ          -5.00911        -4.06125         -1.5879
LJ          0.501054         3.37418        -1.48889
LJ           3.17087         -1.2048          2.4254
LJ            1.4806        -3.05987        0.469595
LJ          -3.16496         2.90134        -4.13504
LJ         -0.631346        -2.74483         2.95044
LJ          -3.55232         2.39251        -3.53705
LJ          -5.02278        -2.53539        -2.72823
LJ          -1.20796        0.605438         5.11379
LJ          -1.98569        -4.58515         1.68056
LJ          0.239745        -1.79671        0.653052
LJ          -1.59694         4.43681        -3.78597
LJ          0.538128         5.94236         1.66525
LJ           5.22444        0.805961         5.20989
LJ          -2.30234         2.27429         5.01487
LJ          -4.75766        -3.81431         2.28874
LJ          -3.95121         2.04989         3.75102
LJ          -5.34364        -1.92822         2.13397
LJ          0.910823        0.673629        -5.90073
LJ          -4.83938        -2.47626        -3.76545
LJ           5.08643        0.430419         6.28221
LJ           5.25145         4.61264          -2.661
LJ          0.103451        -4.18347        -5.10015
LJ           4.37873          2.6033         0.35651
LJ          -4.57792         4.44568        -5.72895
LJ         -0.148589        0.622082        -5.89053
LJ          -2.49563        -3.74709        -4.72617
LJ         -0.882613         -2.5621        -1.59678
LJ          -1.38925        -1.90928         2.67685
LJ           2.98459         5.12353        -6.41122
LJ          -2.61345          -5.219         4.17258
LJ           6.39949       -0.263512         5.15934
LJ          -5.10651         1.42374        -4.00786
LJ         -0.709989         3.75031        -3.46456
LJ          -2.77581         2.76096        -4.52498
LJ           2.56704        -2.52074         1.22133
LJ           1.34757         2.63662        0.288479
LJ           -1.2996        -4.68524        -5.02016
LJ          -1.69536        -6.27343         2.43417
LJ          -3.05085          -1.711         5.33536
LJ          -3.89895         2.69954        -4.76817
LJ           4.89805        -4.97984        0.263915
LJ          -6.34784        -3.09407        -1.58685
LJ            1.6314         -5.9972        -4.24191
LJ           1.17454         1.11032         2.85081
LJ           4.75659        -4.36945         5.89804
LJ          -6.12076        0.112406        -2.76114
LJ           2.65842        -3.83778         2.25245
LJ          -1.42442         1.78555        0.672962
LJ           4.55768        -0.18144        -3.12528
LJ          -3.17688         4.88414         1.42544
LJ          -5.30051        -4.24697        -4.82982
LJ        -0.0093028          2.5014        -4.75467
LJ          -1.10265        -5.50227         2.80595
LJ          -2.61056        -3.17036         5.40473
LJ          -1.67063       -0.458572        -4.57177
LJ           -3.4157        -3.87342       -0.491093
LJ           5.94442         6.05011         4.06498
LJ          -4.63933         3.22436         -2.4771
LJ          -5.06928        -2.40011         2.96973
LJ          -6.02777         5.43081         4.09935
LJ          0.270011        -3.42762        -2.91352
LJ          -1.50039       -0.708409      -0.0828349
LJ           5.05019         4.28954        -2.56236
LJ           2.97759         0.27101         2.08503
LJ           1.98544        0.970806        -1.50403
LJ           2.80726        -2.04241        -3.06588
LJ         -0.142136        -0.83179         2.75827
LJ           2.88289        -4.27404       -0.972939
LJ           6.35788       -0.135809        0.114815
LJ         -0.766672         5.30717        -5.35471
LJ          -4.99414         1.19647         4.27074
LJ          -6.11354        -2.77467        -3.17886
LJ          -4.36367        -3.58094        -4.91479
LJ         0.0569759         3.87766         4.78057
LJ           2.16674        -1.51998        -6.32518
LJ           5.77071        -3.80187        0.860265
LJ           -6.2326         1.62612         3.08012
LJ           5.92421        0.290349          6.1003
LJ           1.54854         2.93498         4.03773
LJ           2.49267         4.28039         1.41361
LJ          -2.33276        -2.90696         -5.9214
