108
#Comment!
LJ           -5.4476        -3.81993        -5.09534
LJ           4.83526         3.98803         -2.4254
LJ          -3.95503        -1.20864        -2.92314
LJ           5.21136        -6.05488        -3.29223
LJ           4.50863        -5.45888        0.912554
LJ          -5.27277         4.48568        -2.05636
LJ          -4.02672        -3.93856         3.73083
LJ         -0.828817        -2.24334         4.58154
LJ           2.93737         6.28291         0.28658
LJ         -0.849198        -4.35535        -5.94182
LJ           3.80689        -6.20889         4.63717
LJ          -4.44623        -2.93514        -2.10637
LJ           6.23523       -0.407472        -1.28583
LJ          -4.83023        -5.19868         5.60543
LJ          -4.89831         4.32582        -4.22581
LJ          -5.94618         1.99994        -2.30024
LJ          -5.94851        -3.92523         2.64037
LJ          -1.66077        -3.60105         4.85235
LJ           5.07302          -3.104        -6.44161
LJ          0.272859        -4.91736         4.32287
LJ           5.22969        -5.37896        0.150781
LJ          -3.44634         1.49581        -5.79795
LJ          -1.77418         1.55413        -3.42952
LJ           4.06318       0.0156384        -3.42689
LJ          -4.04768        -1.51215        -4.68126
LJ           4.28967         -4.9301         5.43836
LJ          -1.23981        -4.60626        0.813692
LJ           3.80142         6.35497         2.71004
LJ           3.18763        -4.51887         1.84621
LJ           2.70244         5.95497        -3.73692
LJ           6.28589        -3.41701        -5.40681
LJ          -6.16228        -1.85575         3.49354
LJ         -0.226855        -1.38799        -5.50554
LJ           2.07075         3.94454        0.646605
LJ          -4.95289        -0.10671        0.121271
LJ           3.66938        -3.18409        -2.39548
LJ          -4.13993         1.01825         3.54416
LJ           1.31916        -2.83239        -4.10221
LJ           4.34554         3.47436        -4.20783
LJ          -6.01479       -0.928414        -1.87806
LJ           5.21528       -0.379822        -4.33351
LJ          -3.45897        -1.62098         4.57118
LJ            5.7532         5.52355        -4.76505
LJ           4.51437        -1.80215        -2.77979
LJ          -6.01883       0.0768763         3.80294
LJ          -4.35274         3.63529       -0.493633
LJ            3.2879        -2.20466        -3.56284
LJ          -4.89104        -3.46209        -1.98778
LJ            4.6597         2.72147         3.87246
LJ           2.38194         3.05091        -3.75836
LJ           3.88854        -1.87714         -3.0277
LJ           6.40139         5.71025         1.59796
LJ           3.17439         5.91426        0.364751
LJ           4.76316         5.86185         3.07742
LJ          -5.13993        -4.93579         5.31168
LJ            5.5711         1.97711       -0.695527
LJ           2.64532         2.51398         5.77651
LJ           4.79358        0.205433        -4.05084
LJ           4.31001        -1.51179         3.40285
LJ          -3.52085        0.359715         3.60613
LJ           1.21053        -2.08203       -0.092781
LJ          -4.46125        0.943787         2.95506
LJ          -2.74172        -4.57571        -1.30959
LJ          -4.94274        -4.06852       0.0608334
LJ           3.44442         2.30793        -3.83991
LJ          -2.99239        -4.84082        -3.67163
LJ           3.00542        -1.21641         1.64699
LJ           6.29142        -3.23973          2.7142
LJ          -1.85257         5.98472        -1.53157
LJ           6.37994        0.534968        -0.55915
LJ           4.72756        -2.41651         2.99629
LJ           3.66313         5.76418         4.18554
LJ            4.2367         4.41178         4.83543
LJ           2.04786       -0.847529        -3.25867
LJ          -1.94298        0.882856        -2.07322
LJ             5.492          5.6692         2.71984
LJ         -0.258714         6.20439         2.22545
LJ           5.09236        -4.02466          1.9928
LJ          -5.44257         4.30987        -1.75683
LJ          0.775551        -1.94144         4.37064
LJ          -3.34555       -0.676836        -1.59782
LJ          -5.18768     0.000637616        -6.30427
LJ           -2.2594        -3.82356         4.41637
LJ           2.73299        -6.15215       -0.688136
LJ           5.78631        -0.35012        -6.01941
LJ           4.26673       -0.187399        -4.07533
LJ           6.36518        -5.72729         2.36017
LJ          -1.56866         -6.0676       -0.253083
LJ          -2.93856         5.33511         -1.7716
LJ           1.22162         5.42095        -0.74309
LJ          -5.53755        -2.15324       -0.842166
LJ           3.58419         2.08308         1.75061
LJ           2.21156        -1.56703         4.78151
LJ          -3.10284        -3.41758         5.66212
LJ           4.61758         2.09455        -6.03666
LJ           5.36081         1.58206       -0.167413
LJ          -5.04649         1.20695           2.447
LJ         -0.965817         3.07796        -2.94649
LJ           1.43835        -4.87791         2.86999
LJ         -0.553195        -2.41755        -3.98212
LJ          0.500994        -2.39449         2.05546
LJ           4.19153        -5.48019        -6.09135
LJ           1.90244       -0.123795        -4.40951
LJ           5.51562        -5.32581          2.7826
LJ          -4.94584        0.864582         1.15988
LJ           -4.7792          6.3105       -0.559971
LJ          -3.74784         2.43763        -3.95132
LJ            5.7183       -0.141485         3.51285
