108
#Comment!
LJ           2.09294         3.11751         -4.5614
LJ          -5.61082        0.703503        -4.50562
LJ          -6.30024       -0.147581        0.351226
LJ           2.50074          6.0463         6.41516
LJ           2.17474       -0.788158        -2.49164
LJ          -6.45436         4.01302         1.46298
LJ           -0.3095        -2.11381        0.817473
LJ           1.05563       -0.179341        -3.77226
LJ          -4.22848        -4.92758         6.13342
LJ         -0.442996        -4.20023        -5.07231
LJ           2.15135         4.28627        -5.43613
LJ          -6.41847        -6.35494        -1.52026
LJ           5.77948         -1.3119      -0.0813792
LJ          0.707957         5.68156         -4.8819
LJ        -0.0509855          3.9097        -2.34936
LJ          -4.62424         2.85846         1.52332
LJ            3.9093        -1.36724        -4.43878
LJ          -0.15084        -1.83739         6.07362
LJ          -2.98053       -0.873318        -1.98434
LJ           3.62737       -0.522699        0.878359
LJ         -0.602974        -3.14165        -4.11977
LJ           2.02429        -3.53299         5.09934
LJ           4.35483         2.60466         2.74887
LJ          -3.77821          2.5593         3.70715
LJ          -6.23247        0.386569         4.45645
LJ          -5.26657        -1.35615          5.1681
LJ          -6.03637        -1.84958          5.7375
LJ          -2.81536         3.87507         5.09375
LJ           3.84015         2.13203         4.56271
LJ           3.33035         4.69404        0.903086
LJ          0.325311         4.95938        -3.97834
LJ              2.38        -3.60261        -6.42372
LJ           5.30659         1.60554         6.28744
LJ         -0.932469          5.2746        -4.96572
LJ           4.50901        -2.38311         5.72427
LJ           3.85206       -0.485649       -0.484573
LJ          -2.63336         5.27666         5.04703
LJ          0.487101        -1.24605        0.834335
LJ          -2.01445         1.89845         1.22425
LJ            -5.122        0.780728         -1.0184
LJ           2.11172        -1.87182       -0.593229
LJ          -5.54385        -2.48208        -6.12667
LJ          -5.73498         4.12078        0.702385
LJ         -0.922079        -3.07062        0.924657
LJ          0.430016        -2.48391       0.0755585
LJ          -5.00045         1.91465         2.97005
LJ           3.87142       -0.243672        -2.53277
LJ          -2.48578         -2.6111        -1.52226
LJ           5.32484        -3.37346        -4.79027
LJ           5.71519       -0.107749       -0.445044
LJ          -5.76078        0.777258          2.6603
LJ            1.8652         1.95601         6.09722
LJ           4.37228        0.444474         4.68427
LJ          -6.09692         1.63721        -0.20375
LJ          -1.41077         3.72898        -2.65762
LJ         -0.952979        -2.76607         5.97487
LJ          -2.34557       -0.132315         -3.9896
LJ          -6.32985             1.4        -3.81522
LJ          -4.11105        -5.03449         1.96657
LJ          -6.34039        -1.01106       -0.865624
LJ           -4.8238        -5.42933         5.15764
LJ          -2.07309         4.79303        -6.19078
LJ           4.40188        -3.06555        -2.68231
LJ          -4.40236         1.05496        0.487548
LJ           -3.6391         3.41644        0.413955
LJ           1.55214         6.42171         4.03316
LJ          -3.64881        -1.77975        -1.14448
LJ            2.2451         1.62402         1.78761
LJ           3.03906        -2.61642       -0.872234
LJ           2.66646         3.77169          2.3468
LJ          -1.81361          1.0697         2.60352
LJ           1.40025        -1.80546        0.200156
LJ          -1.77591        -2.65263       0.0361704
LJ          -1.51769        -1.78354         1.33755
LJ           -4.9725          3.8638         4.44131
LJ          -5.74853         5.45223        0.800293
LJ          -3.20917         6.43271        -5.29513
LJ          -1.92787        -2.49701         1.96842
LJ           1.73134        -6.42457        -6.00235
LJ         -0.346759            -3.5         1.67214
LJ          0.336453         1.56292         4.28183
LJ            3.7701        -2.15958        -2.08959
LJ           1.71098        -2.11726        -1.56622
LJ         -0.775271        -2.41821          1.8782
LJ          -6.25227        -4.67928          -2.672
LJ          -5.96404        0.421877         1.08613
LJ          0.930706        0.814136         1.78756
LJ         -0.839998       -0.610615        -2.15773
LJ           4.85452       -0.526911       -0.713176
LJ        -0.0153155        -3.90793         5.04887
LJ           2.27176        -3.82145         3.73114
LJ           6.26656        0.454704        -1.37568
LJ           1.82002         1.79658        -1.98544
LJ             3.166         3.94138       0.0745627
LJ            6.0527         3.79086       -0.698567
LJ           3.83091        -1.51688       -0.210114
LJ          -5.37873        0.875742       0.0516415
LJ          -4.37784          3.3143       -0.941134
LJ         -0.584981        -2.44648        -2.02236
LJ          -4.39551          3.4108        -2.21733
LJ          -1.02095        0.401722         2.03719
LJ           2.16644        -2.91269       -0.340763
LJ           1.41359       -0.766577         4.81114
LJ         -0.406599         1.14636         1.19332
LJ            4.1808         0.52552         1.91701
LJ           3.86047         1.50709         1.61671
LJ           4.64969        0.394939        -2.69527
LJ           4.29091         1.33643         2.70987
