108
#Comment!
LJ          0.397449        0.427974        -2.94952
LJ           6.17388      -0.0776209        -6.28971
LJ           5.65653      -0.0426745        0.203072
LJ           4.81191         4.44217        -3.13665
LJ           5.50471         2.96941        -2.64006
LJ           5.94925         1.79911         1.07099
LJ          -1.57821        -1.19999         1.67179
LJ           2.62433        -0.84763        -3.84418
LJ           -4.1658         5.68761         3.86666
LJ          -3.05803        -3.89255        -4.87651
LJ          0.601788         2.76238        -5.64254
LJ          -4.38412         5.37551       -0.868675
LJ           3.16115        -3.54316       0.0328811
LJ         -0.750584        -5.42763        -4.52093
LJ         -0.664128         4.64316        -4.00536
LJ          -3.05003        0.270979         3.62219
LJ          -5.32831         -1.2488        -4.96956
LJ        0.00533007        -2.71869         5.87476
LJ          -2.70819         -1.1785         -3.2957
LJ           6.28641        -2.09725         3.13697
LJ          -1.61036        -3.69182          -4.973
LJ           2.74353        -5.89872         3.10078
LJ           5.34806          2.4749         3.23799
LJ          -1.36841          6.0335         2.67907
LJ          -5.75063        0.982962         2.44376
LJ          -5.46287        -3.49338         3.07258
LJ           6.24714        -3.65519         2.55217
LJ           -4.0402         1.63387         5.29778
LJ           1.08195         2.24186         2.70602
LJ          0.166925        -2.69814        0.909606
LJ           1.13453         4.95779        -4.27751
LJ           3.03682        -4.95577         3.54585
LJ           5.28334         4.26879         4.96894
LJ           0.84226        -5.33119        -3.98741
LJ           5.58195         1.81752         2.19978
LJ           2.21553       -0.795147      -0.0196347
LJ          -2.23866         -5.1553        -6.22952
LJ         -0.416645       -0.625359          1.7682
LJ          -2.37304       -0.838611         2.32263
LJ          -5.99998         3.28863       -0.707497
LJ           4.18824        -1.24058        -1.42283
LJ           4.82595        -3.26733         5.57993
LJ          -3.30368         1.29341         -1.3706
LJ           -2.0838        -1.86678         2.54503
LJ          0.379828        -1.26166         2.80152
LJ          -4.96194         1.44338         3.41711
LJ           6.03539        -1.79698        -2.63352
LJ          -3.48322        -2.41408        -4.39338
LJ           3.55837        -4.09977        -6.12048
LJ            4.4162       -0.151896          2.6874
LJ          -3.41947        -1.46164         2.33665
LJ         -0.963645         3.01902        -4.45363
LJ          -6.31263        -3.35964         1.33471
LJ           3.89058          2.6524        0.346933
LJ         0.0335538         4.73521        -2.21832
LJ          -1.77787         -4.1338         6.32445
LJ           -4.6235         1.87257         -2.2551
LJ          -5.19329         2.70412        -3.76214
LJ          -5.67821         6.21119         3.76546
LJ            2.4906        -2.06344       0.0786309
LJ          -4.16735        -2.76227         5.54228
LJ          -2.24226         5.15062         4.78248
LJ           5.48103         1.45832        -3.79429
LJ          -5.85374         2.32168        0.988771
LJ          -5.69835         4.32229       -0.369867
LJ           3.10821        -5.62712        -5.39944
LJ          -5.01389         2.82993        0.328079
LJ           2.62798         2.57386         4.29352
LJ           3.58233        -1.99583        -2.04485
LJ           4.11233         3.07104         2.19275
LJ         -0.910237        0.460992         1.99175
LJ          0.603535       -0.649466        0.542208
LJ          -2.32145        -3.31564        -1.76523
LJ          -2.63987         -2.6756          1.5186
LJ          -6.00823         5.73747         4.74008
LJ           4.70168         1.35037         1.31409
LJ          0.493663        -4.68925       -0.556701
LJ          -1.05639        -2.63216         3.04844
LJ           4.06585         5.94514        -5.11133
LJ          -2.66202        -2.99365         3.02646
LJ          0.401737       -0.894427         4.35441
LJ           3.68958        -3.02838        -1.89031
LJ           2.29981        -0.11374       -0.889048
LJ         -0.971579        -1.35696          2.5776
LJ           4.94397        -5.65618        -4.20551
LJ          -5.54653        0.998736         1.26146
LJ         -0.294893        0.918511         2.68815
LJ          -1.38317        -2.18609        -3.17556
LJ           4.24436        -2.47281         -2.7602
LJ          0.619482        -6.00813         4.76729
LJ           5.28027         5.42706         4.69411
LJ           6.05318       0.0261735        -1.49299
LJ           3.15775         3.85151        -2.94917
LJ           2.83762         2.56387       -0.348833
LJ          -6.20019         4.19621        -1.75468
LJ           4.16844        -2.29123        -1.14472
LJ          -5.20184      -0.0878325         1.88098
LJ          -3.60155         5.42399        -3.51165
LJ          -0.75263        -3.23016       -0.857013
LJ          -4.97314         3.48485        -1.77337
LJ          0.273307         1.38077         1.67359
LJ           2.49596        -1.27869        -1.07774
LJ           2.43069      -0.0560373        -6.32073
LJ         -0.498585         1.42565        0.820339
LJ           4.71679         1.05979         2.57197
LJ           3.46803         2.15553          1.1697
LJ          -5.50941         -0.8458        -2.75128
LJ           5.11564         1.69767         4.00039
