108
#Comment!
LJ           5.65416         6.29702        -3.79855
LJ           3.46012        -1.82737        -3.64147
LJ          -3.96909         4.58348        -2.79208
LJ           6.36733         5.19479        -2.57765
LJ           6.24972        -1.14085          -2.108
LJ           5.14956        -5.59426          1.6985
LJ            -5.811        -1.62969        -2.79953
LJ           3.41008         2.76887        -1.01473
LJ          -3.03305         2.47507        -5.72745
LJ          -5.61122        -1.41025         3.90239
LJ          -3.13461         5.19973         6.08126
LJ          -4.87944          1.1249         1.63336
LJ           6.42108         5.92978         1.68187
LJ           1.43867        -5.63176         4.23436
LJ           -2.7439        -2.33128         -6.0673
LJ          -4.21529        -1.41334        -1.44384
LJ          -2.25978       -0.401203       -0.742766
LJ          -2.06993         5.72352         4.48317
LJ          -5.86384         5.98918        0.117871
LJ           4.00757         2.94088        -4.54484
LJ          -2.25529         -2.3515        -2.81503
LJ         -0.575469         4.26264         5.58605
LJ           6.27832         5.96878        -3.16845
LJ          -2.64767        -4.01688         5.80625
LJ             1.073        -6.24372       -0.363983
LJ           1.89762        -5.79434       -0.277137
LJ           1.64056        0.772439        -4.80589
LJ           -5.9972         1.02258          5.5954
LJ          -4.60404         3.70942         3.63608
LJ           1.34293         1.14514         3.01795
LJ          -1.54291         3.30069         5.23265
LJ          0.770979         3.68642        -1.48345
LJ          -5.18877        0.980521     -0.00281099
LJ           1.14754         2.55703         3.85517
LJ          -1.84182      -0.0101802        -1.15788
LJ          -1.16025        0.306255         0.92877
LJ           2.25121           4.044         5.67075
LJ           2.04236        -2.24062         -3.1372
LJ           5.91774        -6.29305         2.38926
LJ         0.0904795        -2.03087        -6.15646
LJ           5.03731        -5.35054        -3.47188
LJ           5.31146        0.381724        -4.02719
LJ          -4.15353         3.33084         3.35201
LJ          -2.28885        -1.25544         3.20873
LJ          -1.54769       -0.782672         5.85147
LJ         -0.589062         1.98192         4.00819
LJ           2.03348       -0.760388         5.29453
LJ           4.82561        -3.83037        -2.31044
LJ          -2.52488         2.36113         3.01568
LJ          -5.94287        -4.27589      -0.0308581
LJ           -3.1475         4.64098         2.31764
LJ           4.33328         5.12194        -2.86483
LJ             4.495         5.44875         2.00884
LJ           -4.2133         4.54656        -3.20659
LJ          -3.13739         5.43993       -0.360387
LJ           2.26734        -5.17539         1.77313
LJ          -3.07299         2.28703         4.63863
LJ          -1.26506         2.65938         0.93018
LJ           4.59315        -3.89536        0.506524
LJ            1.2865        -4.74248       -0.336601
LJ           1.99188         3.77466        -3.22363
LJ           6.10094         5.15271        -5.83207
LJ          -4.25161         1.59705         2.89702
LJ          -4.13539         5.24376        -5.13864
LJ           1.20199        -5.32518         5.72701
LJ           6.09634        0.245937         5.84911
LJ           4.94703          5.4151        -4.18277
LJ          0.201157        -6.38088        -4.33148
LJ           6.03323        -3.21666         6.40115
LJ          -2.21128        -2.48608         3.48448
LJ           1.04158         5.77014         0.56196
LJ           4.62872         4.10038        -2.03305
LJ         -0.708345         5.89176         4.33371
LJ          0.323799        -2.95726        -1.47605
LJ          -4.27536       -0.750299        -3.41151
LJ          0.738645         5.83718        -3.67606
LJ           5.77218         5.05057        -6.21601
LJ            6.2472          1.6102         2.29384
LJ         -0.854124       -0.930852       -0.627222
LJ           3.22936         3.06277        -3.96756
LJ           2.90254         4.47951         -3.2792
LJ           2.07788       -0.230762        -0.54909
LJ          0.469329        -3.54957        -5.87512
LJ        -0.0877802         1.90857         6.27257
LJ          -5.81361        -6.35784         3.07534
LJ           5.20435         5.35835         3.61037
LJ         -0.941393         6.43829        -0.12936
LJ           2.65419         2.37991       -0.782809
LJ          -2.72901        -1.33101         2.17532
LJ           4.27822         4.62437         4.67085
LJ           5.71085         4.20097        -1.55568
LJ          -3.36474         1.28569        0.558507
LJ          -2.97001       -0.197471       0.0249451
LJ          -1.51682       -0.203793         5.53017
LJ          -5.79236        0.233581         2.07744
LJ           3.93826       -0.858499         2.93129
LJ          -4.98002        -3.30585         1.45584
LJ           1.54002         2.48344         3.15358
LJ           -1.7567         3.60765         4.11296
LJ           3.81401         4.55753       -0.121392
LJ          0.464241         1.38084       -0.513449
LJ           4.50514       -0.270374        -4.51263
LJ          -2.78016        -2.12667         4.20432
LJ         -0.279605       -0.850016         1.46102
LJ          -3.95322         4.24369        -4.11841
LJ          -0.26747       -0.421853         4.82475
LJ            4.3646         -5.5505         5.24046
LJ          -4.67168         2.86247        0.633205
