108
#Comment!
LJ          0.933255        0.275917        -2.68673
LJ           4.23998        -1.17357         3.60558
LJ           3.55977        0.192837        0.606299
LJ           4.71386         2.47306        0.475664
LJ          -4.08076        -5.56589         -5.4408
LJ            3.8268         3.82102        0.589077
LJ          -2.85654       -0.547157         3.95142
LJ           4.32987        -1.95854        -4.27385
LJ          -2.28061         2.78706         1.98766
LJ           -3.7075       -0.171703         -6.0416
LJ          -2.62793       0.0498329        -5.20515
LJ           -3.4226         3.39582        0.564388
LJ           1.10807          6.2577       -0.677539
LJ           -4.0532        -1.93116       -0.571018
LJ          -1.93669         1.71916        -5.24056
LJ          -1.15619        -2.47594          2.9368
LJ         -0.819775        -3.54882         6.28126
LJ         -0.800806         5.09204        -5.13789
LJ          -2.46072        -2.96269        -5.98197
LJ          -3.99485         4.78555        -6.07171
LJ          -2.20417         1.73239         1.62693
LJ           3.55571          5.7601        0.934144
LJ            6.1601         1.12716        -5.98732
LJ           1.01276        -4.20067         2.77232
LJ          -2.87248         -2.1197        0.187265
LJ           6.05669         6.10193        -1.33457
LJ          -5.45661          6.2673       -0.916396
LJ          -5.21082       -0.794598         -5.0554
LJ          0.765341           5.823         1.15518
LJ            1.3944       -0.298032         3.78456
LJ           1.61093         4.06469        -4.10776
LJ           3.43158         6.20204       0.0558495
LJ           5.44529       -0.769046         4.55876
LJ           3.48175        -2.80818        -2.01116
LJ           5.56662         5.27353         1.81983
LJ         -0.436201        -1.36625        -4.64189
LJ          -3.98049         6.40038         5.14974
LJ          -4.17958       -0.204999         1.71065
LJ          -1.29671       -0.658388         5.54017
LJ          -5.71827         4.50624       -0.671273
LJ            5.6155        -3.07926        -2.45962
LJ          0.810465        -4.62985         3.99961
LJ          0.281074        -2.65074        -1.44475
LJ            -3.089      -0.0466867         2.34734
LJ           4.89788          3.8493         5.87422
LJ           5.63901        0.649327       -0.158785
LJ          -5.08349        -3.34159        -2.28378
LJ          -3.26127       -0.739108         5.96521
LJ           2.71365        -1.35185         5.18665
LJ           5.09462        0.291144        -2.17864
LJ          -1.81924        -3.60991        0.154939
LJ          -2.52161        -6.22021        -3.33034
LJ          -3.36193         5.18906        -2.52442
LJ           3.42426         4.81255        -0.17115
LJ           2.26977         5.83276        -2.10909
LJ          -3.53068         5.48119          5.6629
LJ           4.04438          3.1553        -3.69786
LJ          -4.29587         4.88701        -2.23478
LJ           3.04183        -4.81055       0.0948689
LJ          -3.90339        -6.10314       -0.702022
LJ          -1.73023        0.255809         6.16332
LJ          -2.86633         4.00542         2.20353
LJ          -5.08889         6.06831         5.95881
LJ             4.481        -6.39752         1.11893
LJ           5.87795         6.16294         2.00829
LJ           3.10964        -6.43943        -1.62702
LJ           3.63977        -2.39498       -0.642591
LJ            1.5228         2.81179         -4.3065
LJ           5.55277        -1.87088        -2.64449
LJ            1.9118         3.61268         2.78098
LJ          -1.20641         1.10165          1.2755
LJ          -3.80409        -1.28883         2.26276
LJ           6.45668        -3.53817        -2.35077
LJ          -1.84342        -3.60141         6.30892
LJ          -4.59902        -3.02556        -3.86177
LJ           2.00474        -1.52589       -0.746962
LJ           4.58592         2.85876         6.31845
LJ          -1.80675        -1.85028         4.52841
LJ          -5.46956        -6.45091        -4.09286
LJ          -2.38946         -4.0382        -5.80167
LJ          0.550296       -0.619132        -4.80651
LJ           4.21788        -1.35464        -3.06758
LJ           3.39004      -0.0619067          -1.183
LJ          -2.32178        -0.84173         4.90208
LJ          0.723147          4.8531        -6.30258
LJ          -3.63457       -0.444509        0.206346
LJ          -1.72043         1.15135         2.29163
LJ          -5.15555         3.76909         6.37847
LJ           3.98988        -1.23631        -1.55818
LJ           1.79187         5.49759       -0.969335
LJ          -5.29327         4.15054         4.32548
LJ            6.0784        -0.07542        -2.58022
LJ          -4.64566         4.88633        -4.81678
LJ           1.93443         1.57233        0.932573
LJ          -4.26857        -5.89633         -3.8514
LJ           4.62116        -2.45185         -1.6951
LJ          -2.38956        -1.78925         3.20457
LJ         -0.801478        -4.94891         3.91348
LJ         -0.660187        -4.72972        -5.31217
LJ           6.23219          5.0304        -1.19189
LJ          -2.42589        0.293337         1.40599
LJ           2.50183        0.369157       -0.200478
LJ           3.79775        0.971541        -3.72946
LJ          -1.28501        0.272172        0.298987
LJ          -6.07145         2.93559         1.48099
LJ            4.4908         3.57964         1.91909
LJ          -2.41155        -3.64713        -1.92294
LJ          -5.71555         1.43433          6.3819
