108
#Comment!
LJ          0.729748      -0.0996765       -0.469042
LJ          -1.30014         1.12992         -4.2187
LJ            5.6054        -4.20766        -4.51093
LJ           2.33457         3.65693       0.0694773
LJ           5.20042         2.17628          4.5104
LJ          -3.77936        0.944513        -2.58655
LJ           5.74474        -4.79976         6.42661
LJ         -0.769225         5.48546        -1.76381
LJ          -6.28549         4.15676         3.42781
LJ           5.91318        -1.43389         3.25802
LJ           6.14696        -4.41922        -5.41065
LJ           2.67358         -1.4763         4.13156
LJ          -2.47265       -0.534883        -4.47412
LJ           4.40049        -2.79329         5.98404
LJ           2.46432        -3.83684          1.4553
LJ            1.1771        -1.49081        -4.35718
LJ           3.84766          6.1827        -1.31909
LJ          -1.59673        -3.13467        -1.01161
LJ           3.16606        -2.66338          4.7871
LJ          -3.46321        -1.44769         2.49219
LJ          -2.41623         1.52169        -5.62384
LJ          -4.45559        -1.48374        -5.76893
LJ           2.69256         4.95877         3.24035
LJ            2.2325        -1.00405       0.0368651
LJ           5.07535        -4.18529         -3.0531
LJ           1.32212        -1.03484        0.650297
LJ          -4.78481        -1.41807        -4.00797
LJ           1.37128        -2.52045          5.4773
LJ           5.71837         1.21898         3.46492
LJ          -1.36151        -2.59285         3.78307
LJ           6.10736         6.36882         5.69925
LJ           4.39058        -5.36972        -6.11903
LJ            4.2613         4.00227       0.0867657
LJ           4.70844         5.77472        -4.46038
LJ            1.1054        0.394596         5.15137
LJ            4.8616        -2.90402        -4.01053
LJ           1.67741        -5.14707         3.20818
LJ           1.88356         1.89729       -0.629404
LJ           -5.6516         3.88782        -2.25809
LJ          0.718423         4.87254         1.12821
LJ          -4.73568         4.35352        -2.88258
LJ           5.50592         5.41168        -6.33836
LJ          0.811077         2.92685        -5.03304
LJ          -5.60056         5.93124         -2.6031
LJ           1.68218        -1.06095         4.32397
LJ           3.75186        -2.96548        0.356034
LJ           1.55087        -1.59603        -1.48753
LJ          0.685284         6.21543         2.38883
LJ           1.98634        0.803576         2.01982
LJ          -4.29421         1.31446         -1.8714
LJ           4.45038        -3.98941        -1.15874
LJ           1.68558         4.06606       -0.234862
LJ          -5.30309         -3.5573         2.63427
LJ           1.13971        -4.82589         5.34475
LJ          -2.81385        -1.96867        -4.57381
LJ          -5.74315        -1.01781        -5.80366
LJ          -5.83095        -5.55379         2.74894
LJ           3.51151        -2.32319       -0.931457
LJ           2.23777        -6.42799        -1.31101
LJ           4.24001        -3.33429         3.04266
LJ          -3.27231          6.3177        -2.88627
LJ            5.2341         4.99427         2.20231
LJ          -4.83374         0.52803         5.09856
LJ         -0.433304        -3.46083        -4.96477
LJ           2.31156         1.99653        -4.89766
LJ           1.02775        -5.55179         -3.1803
LJ           3.25608          3.6561        -3.58055
LJ           2.55305         3.88894        -3.65196
LJ           1.11986       -0.607336          2.4349
LJ            1.1926         2.67751          1.8892
LJ           6.28725        -4.49295      -0.0705633
LJ          -2.86788         3.20097        -2.47001
LJ           2.92704         4.46565        -4.25665
LJ           4.38088        -5.74411         3.38046
LJ          -4.97925        -1.93311      -0.0167424
LJ           5.89811       -0.787138        -1.13219
LJ          -0.36558         2.10092         2.26078
LJ            5.3166         5.59545         5.04345
LJ          -1.52757         2.67706         5.46243
LJ           6.10349         -6.3326        -3.88715
LJ           3.20206        -3.76773        -1.64588
LJ            3.0997       -0.892739        -4.71694
LJ          -3.56238         -3.7613        -5.92173
LJ          -5.84348         3.32273       -0.623753
LJ           5.51666        -1.83831         3.76145
LJ          -5.52997        -1.38286         4.19978
LJ          -3.89047         5.49967       -0.751608
LJ           3.92629        -4.36013        -4.57346
LJ          -1.60993        -1.63334         3.06969
LJ           3.74415         4.73752        -1.96356
LJ           -3.6305         3.60317        -4.79299
LJ            3.4993        -4.21244        -4.77033
LJ          -3.12689        -1.69506        -4.22222
LJ         -0.577021        -2.58334        -6.17496
LJ          -1.58865       -0.371363         4.93176
LJ          -2.09946        0.703978        -2.00695
LJ           -5.3756        -3.34873        -1.75132
LJ          -3.70196         1.31782       -0.857347
LJ          -2.01121       -0.729799         2.67747
LJ          -1.12371         1.02541        0.828157
LJ           4.56454         5.78608         3.99244
LJ           1.26328          -2.673        -6.15344
LJ           1.72254        -4.22225        -4.17996
LJ          -2.49446          4.8881         5.23011
LJ           4.80679         2.56506        -5.01021
LJ           2.75116         3.48318         1.52156
LJ           6.14335         3.56033        -4.49524
LJ         0.0572016          2.2475         5.95553
