108
#Comment!
LJ           2.63294        -1.18973       -0.690389
LJ           2.08841        0.454425         1.69599
LJ            4.5077        0.201583       -0.101401
LJ           3.97635         2.38284        -2.54763
LJ          -4.33322      -0.0411223        -5.11794
LJ           2.61864         5.37648         2.62282
LJ          0.255246        -4.60409         1.44226
LJ          -6.44272        -4.72201         2.56313
LJ         0.0914393        -4.77438      -0.0854755
LJ           5.93285        -6.19751       -0.040114
LJ          -3.62279        -2.59139         5.54232
LJ          -5.19943         6.24607         4.81074
LJ          -4.01675         2.40479        -1.20066
LJ           5.61345         5.46925         5.04686
LJ           6.07982         5.37939        -4.69847
LJ           6.25464         1.28242         1.72533
LJ          -1.82808        0.850177        -5.75988
LJ           2.21941         4.84788      -0.0714451
LJ          -2.45643       -0.383973        -3.29804
LJ          0.788088         3.53123        -5.03479
LJ          -2.51706         -1.4616         3.76112
LJ          -1.19953         2.77136       -0.520333
LJ           5.13898         6.36252        0.970743
LJ           -5.7172         -4.9699          3.7678
LJ           -2.7675        -5.57559         3.24365
LJ           1.30073       -0.564153        -3.17411
LJ           3.65674        -5.64099         1.36826
LJ          -3.36603         2.15835         1.58549
LJ           1.17856       -0.184642          3.6636
LJ          -1.73011        -6.00221        -2.25212
LJ           6.18317      -0.0129906        -2.65544
LJ           1.84576         5.09881         3.90353
LJ          -6.22924         6.02476          3.7021
LJ           4.55176        -2.84894          3.0824
LJ          -1.72378        -5.29258        -3.74927
LJ           4.50746         1.52996        -4.38134
LJ           1.85398         1.88464         5.15499
LJ           3.14345        -5.85016         1.60033
LJ           -3.2189        -3.03681         1.91768
LJ           4.08535        -3.90539         3.11998
LJ           3.70846         3.07147         2.39693
LJ          0.375175        0.957355         1.07562
LJ           -0.4728        -2.32587         5.96617
LJ          -3.59101        -1.50439        -1.36792
LJ           1.50511         -1.2707         5.14769
LJ          -1.33918         -2.6232        -5.43841
LJ          -1.68482        -5.13467        -6.40215
LJ          0.462027       -0.058126          2.2776
LJ           4.85662        0.564075        -6.21285
LJ          -6.15607        -3.90403        -5.93897
LJ          -4.08314        -0.49106         2.63212
LJ           5.91883        -3.80151        -4.44184
LJ          -0.26714       -0.805485        -5.29653
LJ         -0.882139         4.86144        -4.66036
LJ           3.23656         2.28108         5.04265
LJ           2.40996        -2.13513        -4.21913
LJ          -4.90174       0.0386736        -0.70239
LJ          -6.11099       -0.654418        -4.47896
LJ           3.42239         4.81143         3.99726
LJ          -2.25477           1.102        0.282727
LJ        -0.0378294         5.17237        -2.53582
LJ          -3.05765       -0.260152         2.06731
LJ          -1.06367       -0.728802        -2.47303
LJ         -0.328123         5.84176        -3.13512
LJ           3.11175          6.2774         4.82735
LJ          -1.66409         6.32092        -6.38113
LJ           1.99789         6.01042        -4.31181
LJ          0.144681         -5.2632       -0.186447
LJ          -4.80155        -4.91327        -5.76123
LJ           1.13901         4.32111         3.36438
LJ           -1.5388         1.55918        -3.87158
LJ           4.40224        -4.34628          1.6103
LJ          -5.06221         4.42161         3.09739
LJ            3.6297         4.19932         -1.3461
LJ          -6.42713        0.584214         5.99589
LJ          -1.23682         3.16193        -1.53624
LJ          -6.35945        -5.39432        -1.80651
LJ           1.64518         1.91014        0.583429
LJ          -0.40979         5.89001        -2.44687
LJ          -3.78406        -1.85647         5.26973
LJ          -5.87559        0.727612         5.76861
LJ           3.68014         5.57409       -0.692219
LJ           4.55784       0.0435793          4.1504
LJ           6.32873        -1.89464         1.89032
LJ          -2.85955        0.972793        -5.96462
LJ           1.58693         4.48568         3.17998
LJ          -1.77636        0.964021         5.69305
LJ           3.00649         5.94466         4.74645
LJ         -0.829821        -4.40369        -2.36646
LJ          -2.22365         5.04178        -5.01556
LJ          -3.59647        -4.76336         3.12198
LJ            3.1186         -2.8037        -2.09264
LJ          -4.14309        -3.52629        0.296542
LJ           1.88962        -2.33511          2.7241
LJ          0.348479        -4.32887         3.72357
LJ           1.66541         5.33805         2.87043
LJ           6.09723        -4.20416         4.01533
LJ          -4.95752        -5.92176        0.163923
LJ          -2.44065         5.88219        -4.34349
LJ           5.95386       -0.992477        -3.58401
LJ           6.32061         2.77993       -0.229847
LJ          -4.53411        -2.69937        -5.27153
LJ           1.23084       -0.369561         3.75793
LJ           2.37031         4.00335        0.755901
LJ           4.36404         -2.4332          4.9009
LJ          -2.89596         3.78739        -1.97005
LJ           2.22233         2.08386        -3.37097
LJ           2.52645          6.3409         2.82185
