108
#Comment!
LJ          -6.36598         4.29357         1.07847
LJ          -2.17418          6.1903        -4.70591
LJ           4.38907        -5.04991         3.65443
LJ          -5.13684        -6.10611       -0.637984
LJ           4.24296         3.27001       -0.266591
LJ           1.08873        0.627383         2.28524
LJ           4.31469         2.48412        -4.03541
LJ          -5.94575        -1.48933         6.19396
LJ         -0.779983         1.83417        -4.48578
LJ          -4.60635        0.698502         6.18366
LJ          0.492929        -3.72348         4.92704
LJ          -1.31718        -4.29176         -6.4065
LJ           2.22615        -2.15777         6.27485
LJ           5.78648         3.13345        -3.93351
LJ           4.85529         5.50187       -0.417661
LJ          -1.75359         1.45722        -5.10624
LJ          -6.07133        -3.74827         0.69464
LJ           1.91213         2.55882        -4.00616
LJ          -1.97862         3.13313        -4.56174
LJ           0.83964         4.40069        -1.46768
LJ           1.93359        -4.59632         1.96493
LJ           4.37604        -3.78015         4.46799
LJ           5.25639        -4.68749        -5.30746
LJ         -0.950933        -6.30843         4.58739
LJ          -1.06613        -5.36245        -4.91264
LJ            1.6554        -1.76701        -4.77034
LJ          -3.22228         6.24839         5.20906
LJ           0.95868        0.201111         1.19693
LJ           -3.5772         2.55585         1.87166
LJ           2.58435        -4.58662         3.64402
LJ           5.80492         2.15923          5.9609
LJ           5.29343       0.0424029        -5.65917
LJ          -1.93618        -4.25748         -2.2326
LJ           5.56663         5.65205        -5.55355
LJ           3.08865        -1.17675         2.03958
LJ          -6.07244        -6.21117        -1.27235
LJ          -3.12954        0.431453         3.06816
LJ          -3.67724        -2.80158       -0.892282
LJ           -4.8013         1.04394       -0.886903
LJ          0.999754         5.09032         1.99236
LJ            5.7912          6.2265        0.126915
LJ          -5.62324        -6.24623         2.21518
LJ         -0.851906        -3.76637        -5.35832
LJ           5.10407        -6.40829         1.40527
LJ          -4.68483         5.22524          5.0982
LJ          -2.38625         4.46124         4.10394
LJ          -1.53145         3.98098         4.30678
LJ          -6.12305       -0.240807         4.98946
LJ            2.4577         3.08264        -3.41531
LJ           1.39021       -0.631385         1.07914
LJ           3.23942       -0.771276       -0.837227
LJ          -1.46964          5.5538         5.85248
LJ          -5.11169         3.98237         3.69445
LJ          -2.58918          3.6472          3.9591
LJ           3.50331        -1.53767        -3.59672
LJ           1.00842        -5.07912           6.086
LJ           2.68526        -3.35067           5.624
LJ         -0.481402         4.05566         4.57225
LJ          -2.19568        -1.25233        -3.80546
LJ          -2.40338         5.16992        -6.31903
LJ            -1.151             4.1         3.28057
LJ           6.17862        -4.44436        -3.44953
LJ           4.19957       -0.776587        0.925835
LJ           1.86638       -0.361822        -4.32817
LJ           4.50996        -2.96249       0.0657903
LJ          -1.24096        -3.01536         4.20208
LJ          -5.91484        0.218711          6.2714
LJ          -1.34946       -0.946646         6.04784
LJ          -5.13748       -0.944473        -3.44944
LJ           2.97207       0.0272443        -5.79642
LJ           1.49516        -3.03409        -2.87101
LJ          -5.94263         4.59085         1.54111
LJ           1.06687        -5.28731        -4.74691
LJ          -1.00476         3.70856        -2.62616
LJ           3.74533       -0.558458         3.38857
LJ          -2.30977        -1.15594        -5.62465
LJ          -1.72922         5.52275         -4.9931
LJ           4.99708         2.78505         4.29687
LJ          0.630461         2.15623        -3.01819
LJ           4.71528         2.22009        -1.30581
LJ           4.20923        0.578615         5.67772
LJ           4.74829         5.88193          4.8651
LJ         -0.595227         5.33718        -1.56802
LJ          -1.86939         6.32985         3.79793
LJ           2.75318         2.25404         -5.1645
LJ          -1.41708         5.53685        0.147803
LJ           2.78703         4.82449        -5.17517
LJ          -5.82853         -3.9461        -3.32557
LJ           4.20981         1.37736        -5.26424
LJ           4.24096         3.58715        0.512805
LJ           3.32848        -1.53928         -0.6663
LJ           -1.4994         4.01514         6.45495
LJ          -5.72017         1.72638        -1.14493
LJ           6.42028         6.29028        0.469778
LJ          -6.43926       -0.771173          -3.272
LJ         -0.419558        -1.50041        -4.56424
LJ           -2.8478        -2.65601        0.216283
LJ           2.82804         5.51332         3.15332
LJ           3.03582         2.38256         4.79948
LJ          -4.60736         5.45199         5.74109
LJ          0.285536        0.754275         1.94749
LJ         0.0780115         5.44692         3.36771
LJ           3.23568         4.03831       0.0828341
LJ           -3.1846       -0.673727         2.68242
LJ          -6.17519         3.14868        -2.13004
LJ           3.02605        -5.06158        -3.96378
LJ           1.02546        -3.02857         3.41734
LJ          -6.30341         1.45573       -0.080721
