108
#Comment!
LJ          0.804705       -0.137519        -3.17989
LJ           4.49482        -1.21473         2.41002
LJ           2.80888       -0.432448         1.09992
LJ           4.87714         3.12995         1.06722
LJ          -3.51453        -4.98735         6.41903
LJ           3.61605         5.01436        0.480037
LJ          -2.46113        -1.03602          4.0956
LJ           4.60728         -1.8908        -3.94417
LJ          -1.30181         4.32457         1.68454
LJ          -3.50113        0.355237        -6.03465
LJ          -3.74823       -0.620503         -5.1619
LJ          -3.64393         2.46752       -0.202849
LJ           0.82082         5.28695       -0.826571
LJ          -4.46611       -0.552426        0.383017
LJ          -2.39655         1.11689         -5.4364
LJ          -1.35415        -3.14119         2.23699
LJ          0.111658        -4.49466         6.10957
LJ          -1.02817          3.8016        -4.76977
LJ          -3.16017        -2.76343         6.11934
LJ          -3.73999         2.96924        -5.36068
LJ          -2.11683         1.34974         2.10607
LJ           4.03175          5.6464         1.72723
LJ          -6.32299        0.929713        -5.02897
LJ           1.16652        -4.72591         3.25462
LJ          -2.32233        -3.09132        0.380886
LJ           5.76212        -5.88329        -2.28937
LJ          -5.62324         4.95718         -1.7456
LJ          -5.70452        -1.13092        -4.48915
LJ           0.98154        -5.99533        0.842049
LJ           1.74789      -0.0725106         4.35859
LJ           1.69083         3.98273        -3.77957
LJ           3.80073         6.42551       0.0428861
LJ           5.73109        -1.71357         4.36437
LJ           3.29585        -2.65912        -1.21631
LJ           5.50113         5.24771         1.36881
LJ         -0.905027        -1.14551        -6.32163
LJ           -2.9803         6.13721         4.72324
LJ          -4.40047       -0.376688         1.63458
LJ          -1.62119        -1.06502         5.95822
LJ          -5.93367            4.43       -0.143819
LJ            3.8856          -2.859        -2.72275
LJ         -0.597637         -5.1826         4.30991
LJ           1.03994         -3.6265        -1.55523
LJ          -4.18888        0.385902         2.45924
LJ            6.2749          5.2073        -6.23719
LJ           5.21285         1.20697        0.181602
LJ          -5.27943        -3.14965        -1.15691
LJ          -2.84673        0.272378         5.97056
LJ           1.60741        -1.12168          5.3588
LJ           5.58022       -0.645478         -1.6079
LJ          -1.53533        -3.79091       -0.340319
LJ          -2.04409        -5.01906        -3.71215
LJ          -2.46051         3.64188        -2.26257
LJ           3.24953         5.00859        -0.77856
LJ           2.82201         6.00507        -2.48422
LJ          -4.80595         4.85856         5.49705
LJ           3.06789         3.28656        -4.20112
LJ          -4.26162         5.36809        -1.70995
LJ           1.53136        -3.77019       -0.778219
LJ          -5.63762         5.73209       -0.942784
LJ         -0.617227        0.383522         5.24361
LJ          -3.08774         3.89554         3.08058
LJ           -5.1685          6.0127         5.68057
LJ           3.78962        -6.16995         1.26271
LJ           6.05615         -5.4989         2.73627
LJ           3.26721        -5.53166        -2.40921
LJ           3.45076        -1.83165        -1.93757
LJ           1.18224         2.47888        -3.17977
LJ            5.2911        -1.84509        -2.51124
LJ           1.07953         3.85741         3.28432
LJ          -2.03457        0.537139         1.20955
LJ          -4.47421        -1.21835         3.42048
LJ          -6.31751        -2.94253        -1.54142
LJ         -0.907552        -3.87856        -5.91082
LJ          -3.98465        -2.14926        -3.84321
LJ           2.34085       -0.486021        -2.11973
LJ           5.63028         4.75718         -4.8411
LJ          -1.61754        -1.40035         4.73512
LJ          -4.94626        -6.40723         -4.3573
LJ          -1.98408        -4.33162        -4.68564
LJ          0.191747       -0.791405        -3.64282
LJ           4.93509       -0.946696        -3.50435
LJ           3.23518        0.336214        -1.71341
LJ          -2.62303       -0.813732          5.3024
LJ         -0.296015         4.44496         5.96076
LJ          -3.43867       -0.411963       -0.390155
LJ           -1.9182        0.136749         2.30746
LJ          -6.00168         2.55679         5.48069
LJ           4.48283       -0.691987        -1.68136
LJ             1.162         4.85066        -1.98757
LJ          -4.85181         3.77095         4.38291
LJ           5.94886        0.186486        -2.79629
LJ          -2.84306         4.97963        -5.58429
LJ           2.09945         1.72638         1.81091
LJ          -3.60099        -5.78623        -4.64529
LJ           5.07802        -2.07701        -1.44031
LJ           -1.5222        -1.56968         3.67767
LJ         -0.283172        -4.06123         2.55882
LJ         -0.275367        -5.34971        -6.29254
LJ           6.13927         4.81949        -1.30213
LJ          -3.10229         0.78097         1.46215
LJ           3.15597        0.387776       0.0790206
LJ           4.10073         1.20887         -3.0326
LJ          -1.92867      -0.0170334        0.296489
LJ          -5.81711         3.31126         1.11061
LJ           4.51762         2.85552         2.05556
LJ          -1.28889        -4.24788        -1.31026
LJ          -5.81165         1.32001        -6.09101
