108
#Comment!
LJ          -0.61147        -4.22599         6.24029
LJ          -6.46063        -1.99931         6.18223
LJ          -2.62634        -1.38418         5.37103
LJ           1.53395         5.38529         3.03133
LJ          -1.47792         -4.1455         2.49293
LJ          -5.96367         5.60312        -5.73007
LJ          -2.71759        -0.42334        -5.82189
LJ          -6.21514         4.36493         5.69628
LJ           1.90407         4.65862        -4.62215
LJ          -4.07803       -0.853608        -6.09974
LJ          -2.00297         2.58349        -5.93892
LJ          -1.15282       -0.875151        -6.04941
LJ           1.23408          2.0708         1.75185
LJ           4.50128        -2.06641         -1.5302
LJ           1.62588        -2.29164        -3.94757
LJ          -5.05148         1.92403         1.74222
LJ           4.74403        -5.64455         3.51673
LJ          -1.97118        -2.54975       -0.184564
LJ          -1.78941          5.3418        -5.04425
LJ          0.494248         5.27986         2.37245
LJ            3.8091         4.33538        -2.14382
LJ          0.874514         5.58742        -5.86031
LJ          -4.61471          6.1714        0.143733
LJ           3.02794         0.04535        -5.53521
LJ          -1.79539        0.417393         2.31298
LJ          -5.27135        -1.49975        0.333019
LJ          -4.82492        -1.95256         -3.8345
LJ          -2.67399       -0.253226        -3.87675
LJ           1.19604        -5.81057          1.8052
LJ           4.72129         3.83221         2.77598
LJ          -5.58153         2.75179         2.88646
LJ          -2.38052         2.57082        -0.19629
LJ           4.34071       -0.466459       -0.730206
LJ           3.67051        0.820059         2.05456
LJ           1.56165          2.2794        -4.21464
LJ          -3.30045        0.112083        -5.02747
LJ           5.33857         3.77574        -3.70679
LJ          -2.23042         3.76163        -1.37065
LJ          0.864342       -0.799478         2.40266
LJ           1.96721       -0.348141         1.37571
LJ           -1.1414        0.188642        -1.84313
LJ          -5.24092         -1.6488         2.12539
LJ           1.62771       -0.891927          2.6729
LJ          0.987277          5.2556        -4.12786
LJ          -5.89897         5.64415         3.67348
LJ           4.65236         2.86713         -1.8655
LJ          0.899592         3.86596         3.61068
LJ           2.50555        -2.14358         -2.9291
LJ           2.03431         5.89479         1.24588
LJ          -3.75959         4.33039         6.15303
LJ          -5.94111         3.87461        -3.68565
LJ           -5.4227        -6.35617       -0.660129
LJ          -4.22147         5.72865         5.86321
LJ          -2.72418         1.55139        -5.48573
LJ           5.59934        -2.56994         4.18046
LJ          -1.96485         4.91222       -0.458166
LJ         -0.577156      0.00344084        -6.42199
LJ          -6.06583        -2.53796         2.24616
LJ          -6.46074         4.11885          5.5123
LJ           5.86512         0.71955         5.96601
LJ          -2.17957         3.35266        -4.61899
LJ          -3.04254         4.35579         3.96179
LJ           6.05617        -6.19456         -5.6294
LJ           4.37691        -1.50246        0.762087
LJ           -2.6291        -5.50549         2.05327
LJ           6.12162        -4.19759        -1.50581
LJ        -0.0182321        -6.01346         5.52076
LJ         -0.895855         1.71948         4.58675
LJ          -2.33932       -0.562256       -0.344821
LJ           3.60837         4.71931        -1.81431
LJ           5.35171        -1.43329        -4.94983
LJ          -2.49804         6.18244        -6.15281
LJ          -2.21349        -5.90414         1.16456
LJ           2.96272        -6.07341       -0.334703
LJ           2.62895         4.01537         3.25969
LJ          -3.01747         2.45216        -4.00467
LJ           5.71947        -3.23798        -6.38081
LJ          -3.57778          1.4541      -0.0510826
LJ          -3.50078       -0.429715        -1.81112
LJ          -2.33767         2.41852        -2.51369
LJ          -2.64367         2.58118          1.1699
LJ          -3.52162        -1.76941        -6.09594
LJ          -2.79045        -3.22311         3.12489
LJ           6.29675        -5.10404          5.5279
LJ          -1.45146        -5.79352         5.48587
LJ          -4.91709         2.80604         2.71669
LJ           3.60942         3.28254        -5.88489
LJ          -2.40949         6.20074          4.1233
LJ           4.53518         1.62335        -2.60212
LJ          -2.24398         1.78202         4.82112
LJ           -1.8973         4.14455         4.67739
LJ           5.60751        -1.71904         -6.2239
LJ          -5.43256        -4.69777        -1.16461
LJ           4.92641         -2.2329         -5.4337
LJ          -3.60514       -0.678193        0.187932
LJ          0.414978         3.10397        -5.46085
LJ           6.38186        -5.56189        -4.46213
LJ          0.284823       -0.285099       -0.608329
LJ          0.806034         5.16568         3.81677
LJ           -1.7066         5.41153         3.31972
LJ          -5.74317         6.27572        0.484652
LJ          -4.13934        -4.74753        -4.95679
LJ           1.04559        -1.43479        0.999064
LJ           1.35754        0.593557         1.89884
LJ          -3.06816        -4.90513         2.46812
LJ          0.630522         1.55064          3.1436
LJ          -6.41534        -1.05202          2.9479
LJ         -0.880058           3.629        0.648609
