108
#Comment!
LJ          -4.63542        0.427086         4.27253
LJ           5.58602         2.69148         3.55031
LJ           2.16199         3.96027        -6.01428
LJ          -1.80215        -6.05496         2.65343
LJ           4.17507        -2.14486         -2.9111
LJ          -6.29152         -4.5312        -4.02542
LJ          -5.92578         5.71073         5.37505
LJ           3.77302        -3.85819         6.30632
LJ             1.718        -2.38834         -1.2854
LJ          -3.20671         2.04349         4.74275
LJ          -1.53352        -1.79286        -2.47087
LJ          -1.66052        -1.90895         2.50261
LJ          -5.42745         3.95903         2.95291
LJ           6.02923        -3.43876        -3.35275
LJ           1.38812     -0.00410876          2.8917
LJ          -2.57744         4.63433         3.30038
LJ           1.88808        0.503909         5.37772
LJ           -2.0491         2.68773        -3.50749
LJ          -2.06284        0.385065        -6.23938
LJ           3.93362       -0.540968        -3.78976
LJ          -4.72862        -5.58429        -3.76897
LJ         -0.993799        -5.11351         0.83111
LJ           2.88005        -5.64259         3.16858
LJ          -6.16114        0.652217          4.8899
LJ          -3.84483          -3.549         3.34918
LJ          -1.56637        -1.86932        -2.62982
LJ           5.86243         1.94896         5.09834
LJ          -5.84241         5.74473         -6.0303
LJ          -6.01406         5.64356        -3.95076
LJ          -1.80727         4.47349         1.22323
LJ          -4.53151        -3.28737        0.671383
LJ           4.20145         3.89717        -4.74422
LJ           2.72333        -1.15007         1.72882
LJ           4.36702         -3.5143         4.32242
LJ         0.0315044         3.14336         1.19947
LJ           5.00372        -1.28145        -6.00931
LJ           5.80928         4.84165         2.67149
LJ          -5.17209        -2.49126        0.452483
LJ           3.53952         2.24128         2.88413
LJ           4.72038         3.02011         -3.9323
LJ           4.82795        -1.06062         5.93283
LJ          -2.83394         4.65513         5.92576
LJ          -2.97269         3.52301         3.84497
LJ          -5.31939         5.59581         2.83546
LJ           4.17038       -0.304422        -5.62734
LJ           2.00676       -0.310662        -4.28436
LJ          -3.88622         5.02473         1.61787
LJ           2.22336         2.94769         4.06483
LJ          -2.02058         5.14221        0.945137
LJ           5.94279         4.30131          5.5953
LJ          -2.31079           2.472         6.03369
LJ        -0.0282192         2.80789        -1.60946
LJ         0.0386349        -6.03089        -4.24562
LJ         -0.734861        -6.14728         4.54682
LJ          0.728823      -0.0623059          4.7186
LJ         0.0436259        -5.07168         3.15786
LJ          -2.48844        -5.68888        -6.26097
LJ           1.13678         3.85538       -0.483449
LJ           3.70629           3.476        -4.24459
LJ           0.83056        0.603567        -2.11948
LJ           4.34113         6.11707         6.15873
LJ          -4.44238         5.31574         1.45121
LJ          -2.25384         5.86114         6.40124
LJ           2.86678        -4.69402        -1.79739
LJ           4.33963         5.07728        -4.34994
LJ           4.97066         4.78968         3.27676
LJ          -2.06394         2.58549        -2.57288
LJ          -5.31794         1.76572        -3.04599
LJ          -1.12129        -4.41904         2.60163
LJ          -4.21706         1.12968        -5.13854
LJ          -5.43101         5.32952         3.95902
LJ          0.102886         1.11711        -1.21444
LJ           3.14695       -0.616495         3.56288
LJ          -4.55308       0.0108695        -1.54743
LJ          -4.58414          6.0056        -3.68232
LJ          -4.29581         3.86839         6.44906
LJ          -1.18363        -4.33901         1.53182
LJ          -1.96044        -4.28444        -3.99435
LJ          -5.88702        -5.02528        -1.89788
LJ         -0.585174        0.534709        -3.42213
LJ           4.68654        -5.12018         4.92708
LJ         -0.586008        -4.86436         4.09824
LJ          -4.48377           1.982        -5.09192
LJ          -4.77761         3.80497         3.29888
LJ           4.49011       -0.556346         2.33916
LJ           3.30571        -5.97103         -5.8523
LJ            4.7237        -6.14187        -4.07865
LJ          -1.10895         3.63294         5.72747
LJ          0.148744        0.565336         4.44254
LJ          -3.86769          5.0755        -3.65951
LJ          -4.14879         6.37333         2.33907
LJ         -0.878524         2.02832         5.59156
LJ          -6.16015       0.0428235        -2.72525
LJ           1.68136         -5.3812         -3.2846
LJ         -0.024483        -2.27868        -2.04172
LJ          -2.84262        -2.27326        0.866669
LJ            -5.857         6.34896        -1.37298
LJ          -1.84196         -2.3418         1.28252
LJ          -6.37169         3.92204        -2.24597
LJ          0.844001        -4.36576         1.99365
LJ          -1.28952         -2.6657         4.08761
LJ           5.40364        -5.62587        -1.01146
LJ            0.8606        -0.48213         6.39829
LJ          -4.57043        -4.84617        -4.22916
LJ           2.48136         -1.9785        -2.15436
LJ           5.38297         4.72259        -2.93774
LJ         -0.887114        -3.92649         4.84968
LJ          -3.43163        -2.15389         5.94057
