108
#Comment!
LJ          0.924616        0.800266        -2.18533
LJ             5.606       -0.593875         5.74016
LJ           5.04489        0.449541        0.191633
LJ           4.67296         3.69848        -1.16597
LJ          -5.87151         4.86798        -3.76625
LJ           4.93815          2.0896         1.30396
LJ          -2.36307       -0.560502         2.46287
LJ           3.47565        -1.22146        -3.76307
LJ           -3.8096         4.43437         3.16716
LJ          -3.52327        -3.01142        -4.95988
LJ         -0.450116         1.89687        -5.57147
LJ          -3.86203         4.80705       -0.138487
LJ           2.42952        -4.59051       -0.257224
LJ          -1.75136        -4.67054        -2.89828
LJ          -0.82538         3.55948        -4.60465
LJ           -1.6315        -1.15782         4.45077
LJ          -3.23109        -1.35025        -5.27413
LJ         -0.175362        -4.45259         -6.3325
LJ          -2.34787        -1.80638        -4.19197
LJ          -4.72194        -3.54035         4.14823
LJ          -1.89193        -1.80426        -2.75355
LJ           3.48523         6.23891         2.40046
LJ           5.69369         1.70343         4.14673
LJ         -0.125402        -5.07548         2.02369
LJ          -5.18539        0.692694        0.845517
LJ          -5.62538        -5.21794         1.60586
LJ          -6.45406        -4.05034         1.36829
LJ          -4.16468        0.681574         6.11476
LJ          0.385334         2.91565         1.67575
LJ          0.458373       -0.997312         2.35089
LJ           1.36315         4.82051         -4.4517
LJ           3.03461        -5.68606         1.87713
LJ           4.79979         2.70892         4.83632
LJ           1.79294        -4.32023        -3.39243
LJ           5.52613         2.97586         2.36092
LJ           1.75787         -1.0718       -0.289184
LJ          -2.94616        -5.89779         5.81301
LJ          -1.47248        -1.19761         2.01418
LJ          -1.86674        0.109618         3.80072
LJ          -6.14109         4.05105        -1.80629
LJ            5.3832        -1.58444        -2.13232
LJ           3.38062        -3.82693         5.02028
LJ          -1.87025     -0.00447285        -1.27381
LJ          -2.52052         -1.5934         2.82477
LJ           1.43592         0.10548         3.34791
LJ          -6.04637         1.09056         2.29219
LJ          -5.93664        -2.80548        -2.72567
LJ          -3.82492        -2.29046        -5.79595
LJ           3.54407        -2.96767         6.08679
LJ           4.35203        0.142038         5.44534
LJ          -2.92528        -2.55771         1.58777
LJ          -1.97004         4.20482        -3.79391
LJ          -5.33691        -4.69649       -0.451059
LJ           4.05083         3.76472        0.511145
LJ          0.759123         5.09707        -2.17512
LJ          -2.30812        -4.98099         6.18848
LJ           -6.3249         2.80931        -2.33526
LJ          -4.68431         3.35788        -3.38413
LJ           5.86309         6.29308         2.66019
LJ          0.247356        -3.46515        -0.31227
LJ          -3.75679        -1.39648         5.79656
LJ          -2.24256         4.91956         3.70945
LJ           6.25995         4.13011         -3.6637
LJ           6.14234         3.76897         0.92935
LJ          -6.02884         5.43726       0.0199208
LJ            3.5146         5.94203        -3.56482
LJ            5.9994         5.63557        0.893371
LJ           2.23608         2.63258         5.78407
LJ           4.16879        -1.53304        -2.49155
LJ           4.08849         3.19726         1.69161
LJ         -0.971133        0.783887         1.45161
LJ         -0.626724       -0.906814         1.07455
LJ          -3.34323        -3.79071         -2.3769
LJ           -3.1989        -3.70104         3.25581
LJ           -5.8188        -5.83298         6.26399
LJ           2.39094       -0.908679        0.450038
LJ           1.90901        -2.26781         1.99052
LJ          -1.39803        -1.99756         2.69303
LJ           5.57215         6.02606         -4.7358
LJ           -3.2251         -3.2763         4.41974
LJ          0.517906        -0.83446         5.31369
LJ           3.74831        -2.43382        -1.78552
LJ           3.15144        0.386693       -0.968401
LJ          -1.72789        -1.08976         3.30797
LJ            3.6079        -6.43181         -5.0397
LJ          -4.48336       -0.344239         1.08627
LJ         -0.780403         1.42604         2.30538
LJ          -2.88489        -4.81076        -4.08567
LJ           3.63018        -3.11006        -2.76203
LJ           1.16046         6.40819         2.88095
LJ          -6.43054         5.21284         4.38824
LJ           5.66502        -0.54596        -1.67839
LJ            4.0413         5.00871        -3.46071
LJ           2.02145         1.82612       -0.783228
LJ             6.413         4.58045        -2.79491
LJ           4.60812        -1.76088        -1.30334
LJ          -4.70932       -0.431546         2.88845
LJ          -2.34527         6.06384         -5.3869
LJ          -1.31283        -3.32249        -2.71399
LJ          -5.23075         3.21558        -1.14457
LJ          0.225784        0.614676         1.83995
LJ           2.42851       -0.598587        -1.14161
LJ           2.90952        0.310302        -5.37645
LJ         -0.400939         1.69422          1.1267
LJ           5.85844         1.80826         2.24109
LJ           3.19823         2.51284        0.748877
LJ          -4.59984         -1.7282         -2.6483
LJ           6.29265         1.58271         5.18981
