108
#Comment!
LJ           6.25147         5.41508         1.16101
LJ           4.28589         2.12314         4.98297
LJ           1.68104         3.04852        -2.37632
LJ          -4.78059        -3.94203         3.61397
LJ           6.30065        -5.21572        -4.06383
LJ          -2.58637         6.32232         1.05705
LJ          -3.69965       -0.723343        -3.37639
LJ           1.78392        -2.79257        -6.34121
LJ          -4.84447         3.02539         2.66339
LJ          -2.87604         5.24941         2.84401
LJ           0.51518         -0.8474         4.21307
LJ          0.412254        -1.53615       -0.925055
LJ             1.982          1.6764         5.55102
LJ          -0.21642         6.25487        -1.62313
LJ           1.48224        -6.02826         3.65588
LJ          -1.59948        -2.55754        -2.36462
LJ         -0.631349        -2.26596         3.11446
LJ           3.27243         5.03386          5.1158
LJ           3.10646        -2.12021         3.34216
LJ          -2.39396         3.38352         -4.8181
LJ          -5.10043        -3.16763        -3.90078
LJ           3.86883        -1.42956         3.84188
LJ          -5.01603        0.113878         6.29743
LJ           4.20912         6.00578        0.808921
LJ            3.8153         4.20835        -2.76478
LJ          -2.42597        -1.07159        -1.74973
LJ           3.52971         3.97838         4.83056
LJ           -2.3589         5.83311        -1.88998
LJ           2.61929       0.0271319         1.92239
LJ           6.38163       -0.767499         2.07215
LJ          -2.56767         3.26138         4.24203
LJ           4.53033         1.43394         2.88633
LJ           5.77481         0.76818        -1.24804
LJ          -1.76187         2.89132        -2.07302
LJ            3.7077        0.904018        -2.82794
LJ           3.58265         4.23751         4.28275
LJ          -3.16201        -2.26533         6.02784
LJ          -5.98414        -4.18889        -3.32591
LJ           5.31923        -1.30904       -0.679731
LJ           5.48694        -3.29167         -3.5506
LJ          -4.93687        -6.02132        -3.05641
LJ          -3.11241          5.2532        -5.44965
LJ           1.40285        -4.21581        -5.04007
LJ          -2.87187       -0.297626      -0.0118617
LJ          -4.27375       -0.103269        -5.41921
LJ          -3.20201        -3.70526         5.36103
LJ             2.105         3.17207         5.48732
LJ           5.21426        -5.02831         1.91159
LJ            6.3735         6.07843        0.467048
LJ          -1.21466         5.97276         -1.2553
LJ           5.55391         5.60799         2.58732
LJ          -1.98144        -4.30502         3.70038
LJ             2.194        -6.32195        -1.38046
LJ            4.4219        -3.09912        -1.99129
LJ           -5.9884        -5.48835        0.788734
LJ          -6.05359         4.11334        -4.54363
LJ          -4.01223         2.77773         5.73072
LJ           2.07481       -0.675586         2.73249
LJ          -3.98696         5.33544         6.13344
LJ          -5.50533         4.70109        -4.49149
LJ          -1.94944         2.59663        -2.30534
LJ           3.96473        -2.59683        -4.71968
LJ           1.06029       -0.352488        -2.99628
LJ           -6.4448        -2.36992        -2.09871
LJ           2.56418        -3.35475         6.16306
LJ           6.22077        -1.89373        -4.67036
LJ           2.25271        -1.34375         1.02083
LJ          -2.65611        -3.92461          4.5292
LJ          -2.74469       -0.182843        -4.19506
LJ          -2.84185        -3.03791         3.46282
LJ          -3.03636         4.19555        -2.97232
LJ          -4.55009         1.70025         1.93702
LJ          -5.27104        -0.51785         0.48266
LJ         0.0040961         6.08699        -1.44521
LJ           -2.9882        -3.79642        0.806379
LJ          -4.67333         5.55179         5.15639
LJ          -4.80976        -1.17938        -2.32794
LJ           -5.3227        -3.85986        0.441356
LJ          -4.02123         4.98472       -0.637527
LJ            6.3134         1.75357        -4.55093
LJ          -0.97227         6.11827         3.29364
LJ           1.78817        0.647783        -6.25051
LJ          -4.07586         -2.3431         4.30182
LJ            1.7252        -2.16123        -3.75951
LJ           -4.3305        -5.08551        -2.73108
LJ          0.378904        -5.41481        -1.48609
LJ         -0.447527        -2.65843         3.90913
LJ           3.46709         4.49486         -2.9574
LJ           -4.7263        -4.43348         3.26307
LJ          -6.39349        -1.52538         4.30202
LJ          0.419699         -2.8529         3.73688
LJ          -3.33022       -0.989006         3.55229
LJ          -1.34369        0.584347         0.58279
LJ          -1.23799         4.01128        -1.75578
LJ         -0.726161        -5.51891         5.68202
LJ           1.97809         1.17905          3.1183
LJ           4.95703        -5.90004       -0.026168
LJ         -0.728515         3.68573           5.908
LJ           1.56944         4.71935         1.63686
LJ           5.71266        -4.88241        -1.39956
LJ           1.40661        -3.29516         5.13069
LJ           5.96494         5.19502        -5.79934
LJ          -4.85168        -1.12803       -0.786925
LJ          -5.97841       -0.581873        -1.21871
LJ          -2.21882        0.417313        -4.70094
LJ          -3.59899        -4.81077         3.40753
LJ          -5.94406          4.4015         4.07889
LJ          -4.73715         3.38197        -1.14264
