108
#Comment!
LJ           4.07151          6.2087         2.36768
LJ          -1.83429         3.35351        -2.12945
LJ           -2.2148        -6.45695       -0.309073
LJ          -4.16977         2.85225         3.89372
LJ          -6.26995         5.10177       -0.464305
LJ         -0.371968        -1.68961        -1.92332
LJ          0.255726       -0.144202        0.756415
LJ           -2.6654        -3.06364        -2.24952
LJ         -0.582036         1.48472        -2.50801
LJ          -2.93023        -4.86802         1.46527
LJ          -2.04484         1.73496        -3.90815
LJ          0.285464        -1.74524         5.47382
LJ           0.46928         1.55294        -4.61304
LJ          -4.78981          1.4939        -4.15973
LJ            2.1947         2.92974         -1.5053
LJ          -2.55614         4.73709         6.10083
LJ           3.84665        -1.05299        -2.56758
LJ           3.81316        -1.98926         -5.6497
LJ          -5.72705        -1.24519        -5.69246
LJ          -1.43381         1.00196         5.15045
LJ           5.09433         2.02186        -2.68266
LJ          0.649744        -3.89577       -0.156871
LJ           6.33475        -2.65887         4.93273
LJ           5.96706         2.00899        -3.95873
LJ           5.39866         6.35553        -5.54547
LJ           1.95595       -0.423692        -6.23286
LJ          -3.12919         4.75567         5.87413
LJ          -5.92935        -1.29095        -3.23399
LJ           2.56503        -5.78849        -4.64935
LJ          -4.40902        -6.24589        -2.36272
LJ          -2.87675         4.19176        -2.94781
LJ           5.26989         4.36887        -1.99729
LJ          -5.23927         5.52035         1.13296
LJ          -2.94116         5.17344       -0.790834
LJ          0.400943         4.06088        -5.85519
LJ           6.09346        -5.64996         -1.8982
LJ          -5.75204        -4.48568        -1.26406
LJ            5.3156       -0.677792         5.77346
LJ           1.49052        -1.57074         1.09056
LJ           6.21077         3.93975         3.74814
LJ           5.03896         1.98678         2.50301
LJ          -3.11665        -5.99138        -4.38872
LJ          -2.66862        0.376993         0.59096
LJ           4.46046        0.949255         5.88713
LJ          -5.00292         2.00276       -0.597495
LJ           4.90416        -4.70223         2.82124
LJ           3.65329         6.09796        -4.87397
LJ         -0.991646         -3.7309        -5.27751
LJ           3.52177        0.407678         3.10439
LJ           5.84339         1.60205        -4.99859
LJ          -6.09019          3.7577        -6.29245
LJ          -5.52775         2.94695        -5.70047
LJ         0.0520071        -4.98643         3.22719
LJ           2.46016        -2.62859         5.91689
LJ          -2.47839        -3.40639        -1.67246
LJ         -0.532804        -4.87959         5.08179
LJ           -3.9702        -3.87961          4.7554
LJ           3.59384         1.59049        -5.26686
LJ         -0.823635       -0.938953         3.54943
LJ           4.82028        -2.01455         3.59008
LJ          -3.08167       -0.984636        0.850373
LJ           1.19597        -1.48012         -0.3408
LJ              2.73         -1.3311        -2.39592
LJ           3.81188         2.55354         6.18805
LJ           3.12963        -1.48607          -6.226
LJ          -5.76938         2.86187         2.03944
LJ          -6.33501         1.73296        -1.46159
LJ          -4.03542         4.50878       -0.762047
LJ          -3.36104        -6.10663        -3.11868
LJ           0.66481        -3.56317         2.60383
LJ          -1.99138        -3.65389         1.83311
LJ          -5.18583         2.06537        -3.28478
LJ          -6.23494        -6.22379         6.06143
LJ          -4.30139       -0.819669         6.03904
LJ          -4.16635         6.11979        -1.12096
LJ         -0.561383         5.30921        -2.22318
LJ          -4.37695         2.88254         6.07482
LJ          -3.02518         5.70526       -0.657174
LJ          -3.98278          6.1074        -5.10849
LJ           3.09973         4.96337         2.90266
LJ           1.23291         5.05004         2.72568
LJ          -2.97712       -0.633313         3.02769
LJ        -0.0208014        -5.93828         5.81416
LJ          -4.09576        -4.24596        -2.51092
LJ            4.0043        -5.89144        -5.32907
LJ          -5.11847       -0.845698         1.60367
LJ          -1.92435         4.23872         5.67983
LJ           5.11325         4.78257       -0.499287
LJ           1.66188        -6.39592        -4.35577
LJ          -2.07252          3.9783        0.744264
LJ          -5.70321         3.66379       -0.731488
LJ           1.54539        0.333105        0.619685
LJ           -2.3732        -5.94002       -0.376258
LJ          -4.59675          4.9223        -1.33294
LJ          0.244253        -2.65251        0.233475
LJ          -1.68725        -4.16892        -3.82637
LJ          0.442457         5.28966         -2.5833
LJ           4.86923        -4.97392         1.95793
LJ           2.91705        -1.20663        0.920745
LJ           -3.6161         1.74461         3.61196
LJ            3.9411         3.42372        -3.96513
LJ         0.0301725        -3.96652         6.12873
LJ          -2.71808         2.61358        -4.80795
LJ          -3.91381           3.696        -0.69372
LJ          -1.70307        -6.08079         -4.4851
LJ          -3.58221         3.54754         4.85765
LJ           6.45461         3.80137         1.61296
LJ          -4.45964        -4.83214          3.6029
