108
#Comment!
LJ           1.05946        0.628991        -2.27389
LJ           4.46027       -0.874503         4.64475
LJ           4.10461        0.949025        0.113272
LJ           4.40262         2.11539        0.147889
LJ          -4.69432         -6.2006        -4.21832
LJ           4.23987         2.89591        0.890073
LJ          -2.94422       -0.368416         3.66975
LJ             4.089        -1.75692        -3.93239
LJ          -2.89438         3.23985         2.42221
LJ          -3.59415       -0.784709        -5.75627
LJ           -1.8182        0.911056        -5.39571
LJ          -3.39715         4.05534        0.776235
LJ            1.4742        -5.82377       -0.588733
LJ          -3.25227        -2.94121        -1.19733
LJ          -1.57353          2.1106        -5.10193
LJ         -0.765196        -2.18264         3.46339
LJ          -1.35541        -2.71858        -6.26086
LJ         -0.552348         6.27054        -5.50652
LJ          -2.23831        -2.77965        -4.99381
LJ            -4.315        -6.35783         5.99396
LJ           -2.3622        0.489287      -0.0223291
LJ           3.71318         5.88527         1.14264
LJ            5.9768         1.36428         5.97374
LJ           1.13258        -3.49524         1.73044
LJ           -3.6179        -1.21249       -0.124533
LJ          -6.40246        -6.44655       -0.383719
LJ           -5.7415        -5.58704       -0.116676
LJ          -4.61282       -0.464976        -5.64205
LJ          0.602303         4.80886         1.35589
LJ           1.08856       -0.543932         3.29996
LJ           1.62731         4.57443        -4.47354
LJ           3.10857         5.86835         0.27469
LJ           4.97325     -0.00292359          4.6227
LJ           3.18342        -2.93294         -2.5633
LJ           5.35097         4.21434          2.0248
LJ          0.277309        -1.32746        -3.17335
LJ          -3.60186        -6.38168         5.06135
LJ          -3.43152      -0.0162274         1.91919
LJ          -1.26761       -0.255234         5.06776
LJ           -5.5079         4.65668        -1.12849
LJ           5.63359        -2.69344        -2.37912
LJ           1.69498        -4.37198         4.35565
LJ          -0.39695        -1.74956         -1.3393
LJ          -2.62075       -0.891495          2.3776
LJ           3.71352          2.7064         5.00526
LJ            6.0775        0.748319        0.671073
LJ          -5.01428        -3.26759        -2.82559
LJ          -3.55494          -1.407         6.12763
LJ           3.45568        -1.67597         5.15984
LJ           4.65689        0.344103        -4.03281
LJ          -2.19572         -3.3019        0.647541
LJ          -2.56333         5.74709        -3.31787
LJ          -4.25889        -6.28885        -2.53951
LJ           3.60122         4.72778        0.404746
LJ           1.68646         5.54261        -2.18836
LJ          -2.89794         6.38882         5.91587
LJ           4.91078         3.01686        -3.23794
LJ          -4.39409         4.28742         -2.6584
LJ           4.44505        -5.90247        0.879067
LJ          -2.45891        -5.21866       -0.561233
LJ          -2.89271       -0.310287        -6.35788
LJ          -2.74779         4.29447         2.24792
LJ          -5.85743          5.6027        -5.93042
LJ           4.76573         5.85999         1.02694
LJ           5.99284         6.27123         1.49875
LJ           3.35595         6.23633        -1.79673
LJ           4.38595        -4.04596       0.0490291
LJ           1.76683         2.69798         -5.2995
LJ            5.2451         -1.6501        -2.62074
LJ           2.68849         3.38979         2.30227
LJ          -1.25375         1.33459         1.43437
LJ          -2.79517        -1.17684         1.20946
LJ          -5.37658        -4.83346        -2.84599
LJ          -2.43447        -3.73553         5.02076
LJ          -5.09798        -3.91875        -4.44203
LJ           1.62844        -2.33079        0.461807
LJ           3.57919        0.997827         4.82671
LJ          -1.93972        -2.00143         4.08741
LJ           -5.7703         6.43363        -3.99536
LJ           -2.8783        -3.88166         6.41074
LJ          0.569983       -0.674225        -5.79201
LJ           4.08304         -1.8439        -2.69552
LJ           3.39966        0.250031       -0.780899
LJ          -2.13449       -0.962394         4.45761
LJ            1.6224         5.21646        -5.62485
LJ          -4.00157       -0.633881        0.908611
LJ          -1.33793         1.43964         2.49895
LJ          -4.28342         5.10812         -5.7184
LJ           3.34418        -2.17402        -1.70086
LJ           2.01469         5.82932        0.418021
LJ          -5.68601         4.51371         4.34475
LJ           5.83873       -0.359167        -2.26419
LJ          -6.24612         4.81727         -4.2775
LJ           1.87296         1.29008       0.0211523
LJ          -4.88856        -5.97711        -3.29331
LJ           4.67483        -2.08091        -1.82472
LJ          -3.52669        -1.31959         3.33158
LJ          -1.15793          -5.699         5.12391
LJ          -1.09127        -3.96836        -4.57152
LJ           6.34627         4.15499        -1.08786
LJ          -1.26108       0.0100004         1.39356
LJ           2.38597        0.283535       -0.475748
LJ           3.60023        0.717671         -4.3009
LJ         -0.783108        0.845087        0.449104
LJ          -6.33255         2.61108         1.80068
LJ           4.06826          4.0395         1.18893
LJ          -3.44381        -3.10082        -2.45736
LJ          -5.84484         1.49988         6.04631
