108
#Comment!
LJ           1.16454        0.872706        -1.95182
LJ           4.94302       -0.804671         5.05107
LJ           4.52592        0.889311        0.168112
LJ           4.20702         2.69564       -0.103317
LJ          -4.93017         6.01955        -4.12083
LJ           4.54988         2.48956         1.21802
LJ          -2.75532       -0.237057         3.43547
LJ           3.92748        -1.57206        -3.75183
LJ          -3.34976         3.56279         2.69716
LJ          -3.68472        -1.73965        -5.35204
LJ           -1.2742          1.3423        -5.45697
LJ          -3.57225         4.34342        0.419682
LJ           1.83256        -5.34293       -0.472488
LJ          -2.66088        -3.63464        -1.79606
LJ          -1.30799         2.60527        -4.91944
LJ          -0.78562        -1.89966         3.98682
LJ          -1.90249        -2.17384        -5.87304
LJ         -0.369525        -5.80078        -5.78996
LJ          -2.02683        -2.68627        -4.51228
LJ          -4.30651        -5.13597         5.19763
LJ          -2.28115       -0.373681        -1.10639
LJ           4.02007         6.18514         1.74108
LJ           5.83887         1.51388         5.26215
LJ          0.853352        -3.70091         1.53654
LJ          -4.26373       -0.408236      -0.0127653
LJ          -6.04148         -6.1423        0.371608
LJ          -6.02693        -4.81091        0.447469
LJ          -4.30699       -0.104309        -6.17225
LJ          0.515251         4.08722         1.48063
LJ          0.857752       -0.727431         2.94837
LJ           1.53001         4.72404        -4.56238
LJ           3.11318         6.13551        0.712537
LJ           4.77591         1.03243         4.65094
LJ           2.58095        -3.50372        -2.89938
LJ            5.5041         3.68376          2.2203
LJ          0.807276        -1.27317        -2.10457
LJ          -3.37264        -6.31973         5.22427
LJ          -2.73806       -0.328208         1.87025
LJ          -1.47409       -0.137457         4.60645
LJ          -5.70321         4.66082        -1.49561
LJ           5.51384        -2.39353        -2.34481
LJ           2.33175        -4.17858         4.59915
LJ         -0.874891        -1.08457        -1.28106
LJ          -2.59216        -1.34786         2.42052
LJ           2.83798         1.73544         4.37821
LJ           6.35808        0.850802         1.27242
LJ          -5.02147        -3.32264         -2.7479
LJ           -3.6725        -1.68091        -6.44366
LJ           3.47893        -2.17307         5.53055
LJ           4.54795        0.284327        -5.38164
LJ          -2.48439        -3.05577        0.989583
LJ          -2.33253         5.16177        -3.49293
LJ          -4.62869         -5.7134         -1.6855
LJ           3.72943         4.62192         0.26981
LJ           1.32237         5.36945        -2.17917
LJ          -2.72747        -5.83539         6.10961
LJ           5.54211         2.91435        -2.90357
LJ          -4.48332         3.91198        -2.94724
LJ           4.98573        -6.44008         1.53104
LJ          -1.41957        -4.56151        -0.46313
LJ          -3.39662       -0.613704         6.27072
LJ          -2.44616         4.66503         2.82367
LJ          -6.23878         5.22569         -5.0945
LJ           5.26951         5.04231        0.954168
LJ           6.18459         6.12972        0.922007
LJ           3.43977         6.09932        -2.46204
LJ           4.93799         -5.2547        0.516298
LJ           1.94493         2.67133        -6.00367
LJ           4.98491        -1.30751        -2.76875
LJ           3.32285         3.25302         1.87394
LJ          -1.34594          1.1733         1.39505
LJ          -1.84066        -1.17037        0.961554
LJ          -4.74849        -4.33623        -2.76918
LJ          -2.88332        -3.78886         4.31191
LJ          -5.37792        -4.63884        -5.29856
LJ            1.7251        -2.19454        0.783154
LJ           2.93945        -0.26067          3.7416
LJ          -1.86678        -2.02635          3.6065
LJ           -6.3047         6.18893        -4.26592
LJ          -3.12339        -3.67042         5.76608
LJ          0.555318       -0.735187         6.44511
LJ           3.99212        -1.84012        -2.34592
LJ           3.39279        0.302266       -0.916287
LJ          -2.03058       -0.880928         4.04402
LJ           2.37374         5.65157        -5.31605
LJ          -4.23049       -0.615228         1.15671
LJ          -1.10899         1.56201           2.688
LJ          -3.71219         6.24703        -5.12308
LJ           3.31954        -2.74376        -2.07165
LJ           1.60855         6.05172         1.39035
LJ          -5.96936         4.78097         4.36366
LJ           5.56036       -0.652667        -2.03546
LJ           5.57568         4.87166         -3.9258
LJ           1.75275         1.31444       -0.630125
LJ          -5.72906         6.23022        -2.97831
LJ           4.84456        -1.89022        -1.51479
LJ           -4.1299        -1.03618         3.20099
LJ          -1.46711        -6.24079         6.03374
LJ          -1.40396        -3.41823        -4.03703
LJ          -6.12308          3.5724       -0.991592
LJ         -0.626129       0.0653014         1.60032
LJ           2.32166       -0.018207       -0.660989
LJ           3.30942        0.568631        -4.66365
LJ         -0.475247         1.26286        0.442874
LJ           6.36865         2.39008          2.0218
LJ           3.64313         3.43332        0.882978
LJ          -4.11079        -2.62067        -2.59754
LJ           -5.9648          1.5427         5.78698
