108
#Comment!
LJ          0.978208        0.405728        -2.53699
LJ           4.18364        -1.14938         4.03559
LJ           3.74165        0.415769        0.364235
LJ           4.62866         2.30554        0.336158
LJ          -4.27296        -5.77488        -5.04421
LJ           3.93149         3.47748        0.670766
LJ           -2.9605       -0.457152            3.84
LJ           4.24646        -1.89354        -4.22504
LJ          -2.48071         2.90972          2.1712
LJ          -3.64198       -0.411159        -5.98904
LJ          -2.33128        0.308486        -5.37491
LJ          -3.33441         3.70536        0.850785
LJ           1.20944        -6.32047         -0.6566
LJ          -3.80101        -2.32136       -0.832169
LJ          -1.79649         1.88957         -5.1843
LJ         -0.986098        -2.38182         3.10291
LJ         -0.984514        -3.23218         6.41885
LJ          -0.71472         5.52166        -5.27014
LJ          -2.39333         -2.8535         -5.5755
LJ            -4.112         5.43542        -6.33275
LJ          -2.29798         1.20229         1.03367
LJ           3.54155           5.676        0.913635
LJ            6.0648         1.20442        -6.32147
LJ           1.05703        -3.94113         2.38292
LJ          -3.09225        -1.80475       0.0778555
LJ           6.18391         6.13219        -1.00112
LJ             -5.51        -6.23535       -0.607064
LJ          -5.03277       -0.677144        -5.25067
LJ          0.700547         5.45256         1.23433
LJ           1.28321       -0.386671         3.60782
LJ            1.6191          4.2702        -4.22453
LJ           3.27394          6.1952       -0.301916
LJ           5.31562       -0.463917         4.59594
LJ           3.57044        -2.73797        -2.22942
LJ           5.38497         4.81621         1.86413
LJ         -0.193755        -1.36819        -4.09025
LJ          -3.85663        -6.44035         5.06666
LJ          -3.90099       -0.175467         1.84061
LJ          -1.29664       -0.526739         5.33404
LJ          -5.56607         4.54273       -0.812421
LJ           5.65279        -2.96214        -2.45017
LJ           1.13579        -4.53908         4.13949
LJ         0.0325464        -2.32417         -1.4071
LJ          -2.92037        -0.33304         2.33143
LJ           4.47658         3.48388         5.54968
LJ           5.80695         0.68117        0.143507
LJ          -5.12603        -3.39975        -2.70738
LJ          -3.40606       -0.985227         6.04991
LJ           3.07934        -1.41472         5.10996
LJ            4.9215        0.326436        -2.85662
LJ          -1.95185        -3.50284        0.336603
LJ          -2.71761         6.29795        -3.20978
LJ          -3.50923         5.79842        -2.66805
LJ             3.496         4.83865        0.108321
LJ           2.04063         5.71468        -2.17395
LJ          -3.21508         5.80447         5.73751
LJ           4.36024         3.10698        -3.53038
LJ           -4.3319         4.64694        -2.38992
LJ           3.55003        -5.17056        0.382329
LJ          -3.37444        -5.78076       -0.648635
LJ          -2.14297        0.120124         6.45825
LJ          -2.93117         4.10262         1.98935
LJ          -5.42598         5.91884         6.32916
LJ           4.62019         6.32062            1.09
LJ           5.95893         6.21013         1.84032
LJ           3.23643          6.3459        -1.25447
LJ           3.90625        -3.00723       -0.359736
LJ           1.61087         2.74471        -4.67469
LJ           5.52517        -1.78648        -2.66022
LJ           2.19111         3.53072         2.61015
LJ           -1.1365         1.24832         1.34408
LJ          -3.53589        -1.16065         1.83224
LJ          -5.96153          -3.957        -2.54229
LJ          -2.07508        -3.68338         5.82513
LJ          -4.81653        -3.32159        -3.83705
LJ           1.86436        -1.82062       -0.304067
LJ           4.20689         2.13465         5.78383
LJ          -1.84062        -1.94744         4.39541
LJ          -5.51711        -6.42109        -3.99641
LJ          -2.57288        -4.00255        -6.09461
LJ          0.575671       -0.623691        -5.18337
LJ           4.05494          -1.636        -2.90652
LJ           3.47325        0.100088       -0.979286
LJ          -2.17027       -0.866501         4.81921
LJ           1.05269         4.98904        -6.06863
LJ          -3.74164       -0.529149        0.462915
LJ          -1.57531         1.28894         2.37842
LJ          -4.84663         4.20314        -6.24514
LJ           3.72251        -1.50997        -1.51881
LJ           1.89703         5.57846       -0.444911
LJ          -5.43693         4.28149         4.32999
LJ           6.03976       -0.174288        -2.44655
LJ          -5.23462         4.84599        -4.61102
LJ           1.89486         1.49922        0.621894
LJ          -4.57556        -5.98255        -3.63516
LJ            4.4599        -2.39479        -1.76449
LJ          -2.81584         -1.6412         3.25818
LJ         -0.932745        -5.22472         4.35225
LJ          -0.80962        -4.46119         -5.0333
LJ           6.18529         4.80271        -1.18259
LJ          -1.99144        0.239813         1.28308
LJ           2.39932        0.320653       -0.307383
LJ           3.70309        0.888268        -3.95297
LJ          -1.11837        0.429227        0.407789
LJ          -6.16293         2.81577         1.59845
LJ           4.47875         3.82305         1.76367
LJ          -2.77783        -3.45561        -2.13229
LJ          -5.73195         1.46761         6.24394
