108
#Comment!
LJ          -4.39303       -0.882529          5.6721
LJ           4.24215         2.93052        -5.93849
LJ         -0.451482         1.50992         3.90085
LJ          -5.17456         2.56287        -2.01902
LJ            -2.712         5.70405         5.70285
LJ           5.23451        0.902684       -0.178439
LJ         -0.645627        -2.28521         5.31145
LJ            1.3141        -1.67335         3.44073
LJ         -0.177945         4.00068       -0.437972
LJ          0.671144        -4.40376         5.76071
LJ          0.998607        -1.67166         2.91025
LJ          -2.10154        -1.84441         3.95981
LJ           5.28881         6.36056        -4.04059
LJ          0.637642         5.47091        -2.15105
LJ           5.02723        -5.63458          1.5744
LJ            4.6716         5.88766       -0.326917
LJ           4.89589         4.26717        -5.02326
LJ           2.14727       -0.903977         3.70208
LJ           5.39358         4.59445        -5.80991
LJ           1.76489        -2.92219       -0.501821
LJ           4.89518        -3.08929        -6.20144
LJ          0.897786       0.0451687         5.53056
LJ         -0.120538         1.68642         0.30612
LJ           4.76924        -1.19525         3.36812
LJ           1.68385       -0.295247        -5.82971
LJ          -4.07015        0.821083         -1.7805
LJ           4.41676         4.96737         5.42917
LJ          -2.33335        -2.90299        0.724756
LJ           4.78011       -0.882153         4.44417
LJ           3.86019         5.48204         1.33128
LJ          -4.41747         1.03598        0.738924
LJ          -3.58313         3.49837       -0.666347
LJ        -0.0112315        -1.05728        -1.76626
LJ           2.85605        -6.05574        -5.16107
LJ        -0.0149002         0.10457        0.882504
LJ          -4.76284         3.59489        -1.28013
LJ          -2.25993         3.55008         2.87805
LJ          -1.35205           -5.25       -0.196083
LJ          -2.55535        -1.14188        -6.30857
LJ          -6.05765        -1.68521         3.20796
LJ           3.42201        -6.16651         0.48786
LJ           2.48449        -2.45482         3.37937
LJ            3.6536        -3.38421        0.368578
LJ          -2.45114         2.63133         5.39377
LJ           4.24696         4.01273        -1.02665
LJ            -3.662        -2.13576         5.58789
LJ           5.22389        -6.37821         4.78792
LJ           1.77325        -1.09705         1.01273
LJ         -0.169622          5.9216         1.52333
LJ          -1.70649        -2.00836        0.529676
LJ           5.17689        -0.41625        -4.77846
LJ           3.36882         5.38201         6.25585
LJ          -3.96584         4.77413         -4.7664
LJ           1.55066         3.98311        -4.82007
LJ          -6.21066         4.99095        -6.21618
LJ          -4.54959        -5.81727        -2.50591
LJ         -0.272968         6.02424        -3.01119
LJ         -0.122319        -5.51708         6.02514
LJ           -3.6839         0.76698         -3.5761
LJ           5.02248          5.2165         5.92507
LJ          0.684715       -0.645887         5.72031
LJ         -0.847506       -0.278736        -5.07492
LJ           6.39095         3.45635        -1.77811
LJ           2.23809        -3.58291         5.13302
LJ          -2.15236         2.60867         6.21117
LJ        -0.0753286         5.22297         1.04172
LJ          -4.36208        0.706685        -5.60263
LJ          0.412678         3.96283        -6.26485
LJ           6.34655        0.393058         3.76821
LJ           2.78674         3.74357         1.19089
LJ          0.253861         2.76682         3.42522
LJ        -0.0170169          0.9274         5.45334
LJ          0.772774          2.8939         2.91875
LJ           3.56676        -5.73503         5.70854
LJ          -4.49744         4.51994        -6.27167
LJ          -1.10786        -5.01213         1.64569
LJ          0.448922        0.602779         2.69793
LJ          -1.21358         -5.4611         4.49876
LJ          -5.91291         5.75089         1.77073
LJ            2.0605         3.09121         0.82828
LJ           5.71128        -2.58524          5.2255
LJ          -4.57915          3.3718        -6.35777
LJ          -3.17878        -4.95864         1.31622
LJ           5.77701        -1.75819          5.8253
LJ           -1.9865        -3.51078        -1.36158
LJ          -5.27293         -2.1054        -4.14585
LJ           1.05922        -1.76024        -3.88285
LJ          -1.38313         3.32734       -0.938968
LJ           2.25881       -0.636602       -0.522154
LJ          -6.30647        -3.28523        -5.44503
LJ           1.68177         5.88288         5.05313
LJ         -0.915463         1.14193        -3.40564
LJ          -5.94177        -1.32907         3.68425
LJ          -4.68203        -4.10589         4.16363
LJ           3.29314         -2.3551         5.36439
LJ          -6.46083        -3.93224        -6.32443
LJ            3.0433        0.452072          3.0787
LJ          -6.44626          3.6108         1.93288
LJ           4.44657         3.92767         5.77674
LJ           4.75927        -5.04129         1.16025
LJ          -2.81835        -4.66953         1.25572
LJ        -0.0224767         4.48641       -0.143633
LJ          -6.42485       -0.849339         1.47403
LJ           2.61137         -2.9566          3.0586
LJ           3.58425        -3.23743        -6.34137
LJ           2.54261       0.0489611         4.63072
LJ           -3.3208        -4.37381       -0.745563
LJ           3.72965       -0.510961       -0.926759
