108
#Comment!
LJ          -4.05404          3.3059        -5.81977
LJ           3.67338        -2.91842         -5.6494
LJ           2.28599         6.31332       -0.406756
LJ           1.61931        -4.48917         5.94508
LJ          -2.33941      -0.0668045        -6.14893
LJ          0.711623        -4.33809         5.16321
LJ          -2.74795        -1.59809        -5.88657
LJ          0.408151        -4.10243        -4.64353
LJ          0.575932         3.79493         5.75518
LJ          -3.05483         5.32561        -4.15111
LJ           1.94283        -3.49496          5.5909
LJ          -3.58666        -3.07191         6.38945
LJ          0.213861         1.56622         1.77283
LJ           3.77118         5.92583         1.16971
LJ           1.17383        -5.36314          -4.144
LJ          -1.03318       -0.213755        -5.64586
LJ           1.40694         5.50886        -1.24857
LJ           3.97531      -0.0882752        -2.35797
LJ           2.14528       -0.630531        -2.40202
LJ           4.50898        -2.37802        -3.37122
LJ           5.83003        0.830515        0.537849
LJ           1.64277        -4.67387         1.20239
LJ          -1.39941         1.24883       -0.632594
LJ           4.09866        -1.71303         5.68913
LJ          -4.40062        -2.48286         4.86412
LJ           6.24281         2.91403        -5.51441
LJ          -2.30244         3.81184        -4.81566
LJ           1.27662         4.29831         6.17488
LJ          -5.11478        -1.43549        -2.20574
LJ          -4.05077        -4.54223        -4.37688
LJ          -1.99976        -3.95085         5.77848
LJ          -1.11821       -0.753201         -6.2723
LJ          0.523881         5.94292         1.04396
LJ          -6.25965         5.25727        -3.50667
LJ           5.18968         6.06257         3.90037
LJ           3.99462       -0.355947         4.46674
LJ          0.267936         1.46384          3.7708
LJ           5.59676         -2.2626         5.87484
LJ          -1.82903         4.38319         2.15737
LJ          -1.73535         2.59809         4.88603
LJ          -1.06905       -0.639577          3.7214
LJ           3.37745        -4.54398         1.04025
LJ           5.28899         1.01074         3.13075
LJ          -5.36509       -0.707649         1.29314
LJ           3.65919         4.95572         6.25403
LJ           1.78571         2.49677         3.13318
LJ           5.02267          1.1673         6.20817
LJ          0.882505        -1.29267        -1.79716
LJ           5.08114        0.212324         4.61725
LJ           2.01838         4.33941         6.29986
LJ           2.04956         4.55293         1.87361
LJ           3.54666        0.405468         0.33276
LJ          -2.43829        -5.11149        -5.85891
LJ           4.95773        -4.70371         1.18032
LJ          -5.71605         2.35563         6.27746
LJ          -3.32345        -6.20564        0.921337
LJ           2.79104        -6.14245          5.0698
LJ          -6.21834        -5.74619         5.53744
LJ           4.43257        -1.87103        -5.04347
LJ           1.72485        -1.32057         4.01191
LJ            4.8769         3.85383        -6.13868
LJ           2.02927        -2.24417        -2.91935
LJ           6.03055        0.314382         3.46316
LJ          -3.21035        -4.42682        -6.44781
LJ          -5.15753        -3.17581        -4.20917
LJ           2.43783         6.04813        -2.90104
LJ          -4.67833        0.825601        -5.17309
LJ           2.75408         6.18658         5.04399
LJ           3.16205        0.897769        -1.30618
LJ        -0.0243681       0.0677379          5.8428
LJ           -5.1503         2.60594        -1.98892
LJ          -2.30254        -5.30532        -5.97865
LJ           2.77492        0.491034         1.21771
LJ          -1.99204      -0.0759511         3.75579
LJ           2.69037        -5.46722        -2.58952
LJ          -3.20867         4.93177         5.64216
LJ           5.02982        -3.20784        -5.41756
LJ          -2.50081         3.69997         1.10822
LJ           4.43442        -4.62419        -4.23897
LJ          -6.17538        -1.41421        -2.92118
LJ            5.0572         6.15399          5.7523
LJ          -4.11273          1.2713        -3.62713
LJ           1.85235        -3.91309        -1.04625
LJ           1.01277         3.61533        0.139338
LJ           -2.3491        -3.03418         6.13984
LJ          -3.82899        -4.66178         2.43327
LJ          -4.19969         -1.1174       -0.130896
LJ           4.96017       -0.846513         4.79865
LJ           4.57317        -2.72558        -2.90651
LJ          -4.40434         6.45141       -0.508644
LJ          -5.81269        -6.10795         3.67761
LJ          -0.33318         -4.2862        0.113985
LJ           -3.2106        -1.78155         5.67548
LJ          -2.50894         0.77292         5.69742
LJ         -0.608715        -3.01375        -2.84826
LJ          -2.02181         6.16361        -1.32268
LJ         -0.511055         5.37011        0.257507
LJ          -2.77561         4.06946        -2.86598
LJ          -4.76468        -2.08233         -4.1231
LJ           3.11886         5.62114         -1.2253
LJ          0.163013        -2.07564         4.59198
LJ           6.36487         2.98796         1.48969
LJ          -5.23086        -2.09363         5.79006
LJ           5.48951         -4.4553         3.75866
LJ           -5.0963        -4.98978        -3.26296
LJ          -5.92362        -2.49473         2.21251
LJ           6.41101        -1.96111       -0.124762
LJ          -3.84969       -0.681028         2.37343
