108
#Comment!
LJ            1.0476        0.597534        -2.31177
LJ           4.35657       -0.949589          4.5996
LJ           4.03183        0.843992        0.102153
LJ           4.44025         2.14367        0.171922
LJ           -4.6262        -6.13006        -4.31858
LJ            4.1911         2.97711        0.856626
LJ          -2.97224       -0.408492         3.68172
LJ           4.11151         -1.7757        -3.99167
LJ          -2.83301         3.20267         2.38734
LJ           -3.5494       -0.701019        -5.81238
LJ          -1.89097        0.814977        -5.40236
LJ          -3.37353         4.01911        0.825677
LJ           1.43119        -5.88747       -0.601192
LJ          -3.33332        -2.85375        -1.13967
LJ          -1.60276         2.08958        -5.11136
LJ         -0.787731        -2.21406         3.40493
LJ          -1.29478        -2.78968        -6.29906
LJ         -0.576002          6.1637        -5.47259
LJ          -2.26402        -2.78522        -5.06947
LJ          -4.29843         6.40923         6.09095
LJ          -2.37015         0.59496        0.118429
LJ           3.67135         5.84094         1.06173
LJ           6.00672         1.34418         6.06398
LJ            1.1217        -3.55925         1.82365
LJ           -3.5379         -1.3047       -0.110521
LJ          -6.46224         6.42387       -0.476199
LJ          -5.69705        -5.66984       -0.182581
LJ           -4.6874       -0.494114        -5.58094
LJ          0.615004         4.90034         1.33949
LJ           1.11659       -0.521316         3.34391
LJ           1.62677         4.52981        -4.43128
LJ           3.07164         5.91255        0.220294
LJ            5.0284      -0.0663838         4.61944
LJ           3.25827        -2.87383        -2.54695
LJ           5.32716         4.27888         1.99418
LJ          0.209705        -1.33377        -3.30413
LJ          -3.63756        -6.38435         5.04534
LJ          -3.50958      -0.0149245         1.92162
LJ           -1.2609        -0.28613         5.11134
LJ          -5.50065         4.64225        -1.08045
LJ           5.64251        -2.71408        -2.39986
LJ           1.61533          -4.396         4.32514
LJ         -0.335881        -1.83188        -1.34866
LJ          -2.64779        -0.81326         2.36411
LJ           3.82319         2.82352           5.083
LJ           6.04058        0.737748        0.595941
LJ          -5.02274         -3.2786        -2.83859
LJ          -3.53904        -1.36111           6.103
LJ           3.46062        -1.60688         5.10961
LJ           4.70369        0.339595        -3.86193
LJ          -2.16009        -3.33125        0.603821
LJ          -2.59376         5.82061        -3.29597
LJ          -4.19809        -6.36899        -2.62892
LJ           3.58781         4.74748        0.370821
LJ            1.7344         5.56549        -2.18886
LJ          -2.92422         6.30279         5.89111
LJ           4.83217         3.02999        -3.27971
LJ          -4.38458         4.33617        -2.62077
LJ           4.31657        -5.78144        0.806512
LJ          -2.58946         -5.2993       -0.573521
LJ          -2.82368       -0.265125        -6.33121
LJ          -2.79148         4.24455          2.1714
LJ          -5.80626          5.6505        -6.02716
LJ           4.73293         5.92002          1.0365
LJ           5.99898         6.26553         1.55303
LJ           3.34289         6.25245        -1.71247
LJ           4.31751        -3.89758     -0.00841317
LJ           1.74458         2.70247          -5.211
LJ           5.31217         -1.6947        -2.62765
LJ           2.61613         3.40949         2.34745
LJ           -1.2247         1.32603         1.41791
LJ          -2.92942        -1.16139         1.26252
LJ           -5.4665        -4.71532         -2.7977
LJ          -2.38099        -3.72784          5.1222
LJ          -5.06259        -3.83015        -4.33025
LJ           1.66207        -2.25786        0.352521
LJ           3.66691         1.15551         4.96364
LJ          -1.93293        -1.97946         4.14498
LJ          -5.74156         6.44523        -3.98919
LJ          -2.84242        -3.90584          -6.447
LJ           0.57138       -0.666629        -5.70589
LJ           4.06621        -1.87348        -2.67368
LJ           3.41252        0.251261       -0.755987
LJ          -2.13222       -0.975658         4.50947
LJ           1.54091         5.18701        -5.69463
LJ          -3.94483       -0.639328        0.870275
LJ          -1.36905         1.42006          2.4734
LJ          -4.36037         4.96988        -5.79133
LJ           3.38426        -2.06855        -1.64641
LJ           2.07391          5.8002        0.292542
LJ          -5.65054         4.48037          4.3424
LJ           5.87298       -0.327237         -2.2869
LJ          -6.10352          4.8169        -4.32426
LJ           1.86993         1.33044        0.113351
LJ          -4.78602        -6.02132        -3.30135
LJ           4.61469        -2.10971        -1.83886
LJ          -3.42355        -1.33683         3.34306
LJ          -1.12509        -5.63168         5.01324
LJ          -1.04931        -4.04072        -4.63584
LJ           6.30725         4.24254        -1.10373
LJ          -1.34557       0.0338364         1.35848
LJ            2.4088         0.27791       -0.464252
LJ           3.60352         0.74652        -4.25666
LJ          -0.84172        0.789529        0.480724
LJ          -6.30737         2.63987          1.7721
LJ            4.1632         4.02684          1.2925
LJ          -3.34514        -3.15469        -2.42068
LJ          -5.84555         1.49299         6.07487
