108
#Comment!
LJ            6.1082        -1.90294        -5.79065
LJ           4.40576        -1.02736         6.00664
LJ           5.86527         1.06285       -0.148952
LJ           6.01594         2.93712        0.140213
LJ           2.91715         2.42864         3.26548
LJ          -5.73079         6.06259         3.06838
LJ           6.31792        -5.99105         -1.2829
LJ           0.27056        -1.57676        -6.34417
LJ           1.30795         4.83301         1.31511
LJ          -1.63376         4.24979         -2.1935
LJ          -1.27249         3.04339        -6.09188
LJ           -2.2438         1.10989        -1.48752
LJ           1.83117         -5.3234        -6.09143
LJ          -1.30987        -5.84678         5.11037
LJ          -3.33276        -2.08339        -5.69062
LJ           5.49559        -1.62892        0.815808
LJ          -4.08513        -0.12736         2.89962
LJ          -6.16154         3.01036        -5.78897
LJ          -1.19351         1.52647        -1.33941
LJ          -2.62861       -0.451273        -5.27322
LJ          -0.12815        -3.57544        -6.02592
LJ          -2.11997        -6.07747        0.528054
LJ           5.97294         5.57572         4.90487
LJ          -5.36218         6.10252         2.63136
LJ           5.59817         5.19489         3.05337
LJ           4.58612         6.40441         1.08514
LJ          0.775747       -0.446589      -0.0665123
LJ            3.9527        -4.51531         1.26996
LJ           6.43841        -1.35512         3.79308
LJ          0.301783         2.08238        -5.53986
LJ          -5.01017         1.97334        -2.47558
LJ          -3.96483        -6.12679       -0.200939
LJ          -4.50759       -0.217965         1.79493
LJ         -0.462402         1.22051         2.00561
LJ          -5.25838         2.95104         -4.1033
LJ          -4.03512         1.54793        -3.78935
LJ          -5.06291         6.30849         3.77338
LJ          -5.44487        -1.06038         1.97282
LJ           4.41939         4.56676        -1.11887
LJ          -5.57805        -4.25207         5.60839
LJ          0.228754         3.50127        -2.11377
LJ          0.193066        -4.15166         6.44712
LJ          -2.74353        -2.41338        0.389683
LJ           1.79014       -0.948043        -5.50597
LJ          -3.47938       -0.756806        -1.44051
LJ          -1.11054        0.714678        0.593078
LJ           6.16419         3.18094        -3.34629
LJ           1.78938        -3.67964         -2.4713
LJ           3.35327        -2.24674         2.96748
LJ          -5.06867         4.74207         5.53863
LJ          -5.18362          5.1772         2.58197
LJ          -4.49913       0.0737914        -5.07946
LJ           2.37921         -2.6951         1.59832
LJ          -2.92577         4.16629        -2.58209
LJ          -1.22097        -5.47904        -3.38103
LJ              6.03        -4.21215        -3.88896
LJ          -4.89885         2.91768         -5.0297
LJ           2.40216        -2.18871        -1.93246
LJ           1.05305        -5.32004        -1.92138
LJ           -3.5512       -0.591361        -5.08115
LJ           5.31767        -3.51694         1.96509
LJ           3.76035        -2.72943         5.20407
LJ           1.88265         4.75823         5.88644
LJ           2.43335        -5.67074          5.3238
LJ           3.29981        -4.25121         -1.9564
LJ          -5.84531         3.76888         1.23581
LJ           5.44619         6.29524         1.55085
LJ           -4.7631        -1.28907         3.02394
LJ           1.46846        -4.50303        -1.70865
LJ          -4.37766         2.31704         4.67991
LJ           1.19404         5.73403         2.80983
LJ           5.09234        -5.84045         3.35985
LJ           0.42537        -5.58607          4.0836
LJ          -3.04413        -1.42176         6.43738
LJ         -0.850704         5.91085        -4.73216
LJ          -2.07047        -2.85562         1.87003
LJ           -2.5921       0.0995063          4.9015
LJ          -5.90878        -4.88846         3.76622
LJ          -5.06766         5.72594        -6.17142
LJ          0.911578         6.12893       -0.561258
LJ          -6.16285        -3.48605          1.9067
LJ          -0.31788         4.51898         5.48394
LJ           1.21535         5.44447        -2.21449
LJ           5.92586         1.63354         2.26548
LJ           -3.4549         4.74034        -1.01186
LJ           5.54514         3.64513         5.11829
LJ          0.706172         5.16819         4.99578
LJ           -4.2542         -1.1192        -5.30895
LJ          0.191412        -3.94484        -2.19826
LJ           5.41941         2.72814         4.30609
LJ           3.86034       -0.582489         4.84865
LJ          0.571183        -3.89703        -1.07702
LJ           -4.3697          3.5097        -0.78862
LJ          -2.78708        -2.11403        -4.65878
LJ          -2.25464        -5.84394        -5.29058
LJ           1.60002        -0.19725        -1.42728
LJ           2.74934         5.99034        -3.95737
LJ          -1.35141        0.870733         2.33626
LJ          -5.52555        -2.31375         4.00953
LJ          -2.68085         2.39722         2.53839
LJ          -3.66654         2.82035       -0.720997
LJ           1.50006        -1.29642         2.55897
LJ          0.968269        -1.27099        -4.74919
LJ           4.85841        -4.18518         5.39263
LJ          -4.04518        -6.21637         4.63893
LJ          -2.12259         5.74212         1.45474
LJ           2.82814         4.58369         5.00353
LJ         -0.663169          4.5985        -3.00053
