108
#Comment!
LJ          -1.01407        -6.46314        -4.06045
LJ          0.644973         5.70875         6.17817
LJ           -5.3123         3.98478        -2.05373
LJ          -4.86278         6.41193         4.55485
LJ          -3.88137         4.56608        -4.80763
LJ            4.3277        -4.32374        -3.07615
LJ         -0.308237         2.39711        0.594025
LJ           2.85001       -0.752233       -0.648211
LJ           2.48797        -4.41426         4.56244
LJ           1.77157         -3.1539        -3.82114
LJ          -3.02818        -5.80038         2.41323
LJ          0.100977       -0.170225         2.66627
LJ           -5.5245        0.864691        -6.15016
LJ          -5.42547        -1.16768        -5.02824
LJ           3.56485        -1.08652         5.46488
LJ          -3.66987          2.0623        -3.66833
LJ          -2.76316        -3.30068       -0.662763
LJ           3.68743         5.42694        -1.98848
LJ           6.34541        -1.14067        0.885743
LJ           6.32619       -0.183803         2.58826
LJ          -3.35131        -1.51659        -4.21905
LJ           1.87206        -2.12017        0.920646
LJ           3.72662         -2.8251        -4.90592
LJ          0.480211         3.92208        -6.32489
LJ           5.50386         3.94513         2.80971
LJ           5.92441        -5.81375        -4.37595
LJ           3.45756         1.12727        -3.87977
LJ          -3.81047       0.0146866         5.33639
LJ           6.09773         1.59993        -1.80663
LJ           4.21496         2.58372        -1.70986
LJ           5.26308         1.07988        -5.77942
LJ          -1.22991         4.05079         2.04345
LJ           1.20399        -5.33678         2.00754
LJ           2.30952       -0.299223       0.0132118
LJ          -1.18867         5.58378        -2.13611
LJ           1.40979         1.15963        -4.95855
LJ          -2.55973        -6.26773         4.88622
LJ           6.08859        -1.23633         1.69262
LJ          -3.32732         4.46119         3.24358
LJ            -0.501         3.43422         1.96802
LJ           5.63018        -3.03751         5.90177
LJ            5.3693         6.29463         5.11195
LJ           2.08049        0.138746         2.72879
LJ         -0.241512         5.81136         5.99071
LJ           -6.2875         4.57643         -2.0359
LJ          -1.65117        0.316602        -1.29521
LJ         -0.949132         5.21724         3.96386
LJ            5.6761        -5.25748         1.32675
LJ           3.79976         4.30197         2.29064
LJ          -2.10757        -2.42934        -5.52867
LJ          -5.53346        -5.37018        -3.45891
LJ          -5.50833        -1.42803         6.45974
LJ           4.53248         4.03104        0.597091
LJ           2.03639         2.45401         -5.2259
LJ           5.05619        0.307441        -4.82493
LJ          -5.89924         5.08866         5.83875
LJ           2.04248         4.57849        -4.86306
LJ           4.58533         5.99996        -2.71739
LJ          -4.95738         5.19074        -2.84762
LJ          0.468927        -5.00786          2.2565
LJ          -6.18034        -1.48492        -5.57743
LJ           2.14533         -5.5705        -3.93491
LJ          0.266883       -0.795549         4.36626
LJ           4.85275         5.82514         3.47608
LJ          -3.25452         6.35005        -4.56634
LJ           4.76953          -3.231         1.59628
LJ           2.31377         4.16716         1.22203
LJ         -0.866756         5.43475      0.00554981
LJ          0.785914       -0.299686        -3.06015
LJ          0.550365       -0.540173        -3.97641
LJ           -3.9684         6.10604       -0.017959
LJ           5.19937         5.04927        0.158884
LJ           4.39325         5.64097         2.89467
LJ          -3.92082        -2.88917        0.883766
LJ           4.13398        -4.89413       -0.343309
LJ           4.08209         2.05123        -3.01483
LJ           5.15461          4.4891         1.10148
LJ           5.88942          2.5244        -2.00622
LJ          -6.18108         3.43787         4.12236
LJ           1.34524        -3.01471        -5.91118
LJ          -2.86821        -2.77293        -1.06054
LJ          -1.17743         1.41647        -4.88752
LJ            6.2695        -2.22002        0.107955
LJ           1.52742        -1.16027         3.39562
LJ            4.4891       -0.610067        -2.50224
LJ            -0.242        -1.08315        -3.29887
LJ            6.2404         4.69586        -6.30376
LJ           4.63921         5.28883         3.65626
LJ         -0.110573         3.62078         3.15802
LJ         -0.660981          1.7528       0.0998733
LJ          -5.07158         2.81536         3.77609
LJ           2.57356        -4.42299       -0.440491
LJ          -5.79281         -4.2686        -3.89174
LJ           -3.9484         5.14773        -3.11386
LJ           2.47052         4.58618         4.33677
LJ           3.24129        -5.40384        -4.22437
LJ            4.6662        -1.20323         4.87341
LJ         0.0217808        0.874377         1.74398
LJ          -6.34846        -5.78438          2.4379
LJ          -2.59932          4.3312        -2.48501
LJ           4.87399        0.958008        -1.94622
LJ           1.93261        -1.04605       -0.696108
LJ          -3.15421         3.86462         3.00241
LJ           3.39508         2.69899         -2.8237
LJ           3.53466         4.75699         1.42778
LJ          -6.34665      -0.0706786        -6.00179
LJ           3.39587         4.18776         4.91357
LJ          -1.80397        -4.92486        -1.16329
