108
#Comment!
LJ        -0.0270157        -6.24723        -2.39704
LJ          -0.30083         1.91156         5.64466
LJ           -1.5644        -6.17272        -5.18834
LJ           2.96457        -5.61986        -4.84717
LJ          0.377793       -0.610809         5.90622
LJ            5.2765         1.55648        -2.86678
LJ           6.35753         1.95894        -1.08885
LJ          -3.75724       -0.790962        -2.49217
LJ          -5.55465       -0.255099         2.18192
LJ           1.90283        -6.19515         1.49062
LJ            6.4008         2.57118      -0.0920431
LJ           4.19185        0.230111         3.26607
LJ          -5.15337        -1.10737         6.28093
LJ           -2.2866         5.81429         -5.5301
LJ           3.61559        -4.33308        0.649876
LJ           -3.2618       -0.326272        -1.31665
LJ          0.722029        0.671959        -6.36941
LJ           2.59084         6.04477        -1.18532
LJ          -4.14859         5.86168         -1.0757
LJ          -2.83672        -5.08269       -0.487291
LJ           5.25313         5.79445         1.53923
LJ           3.98254         -2.7692        -6.29348
LJ          -6.30936        0.251356        -2.27691
LJ          -6.44237         2.00413        -2.53112
LJ           3.39406        0.942337        -4.35767
LJ           3.19199       -0.655777       -0.423071
LJ           3.68471        -4.74153        -3.65858
LJ          -5.78632        -3.74106        -1.04134
LJ           3.81224         4.40045        -3.47257
LJ          -5.42763          6.2378        -4.02248
LJ           1.82234        -6.45855       -0.249827
LJ          -3.29197         2.55226        -5.82277
LJ          -4.40881        -5.05362         5.43793
LJ           2.77995        -3.09554         2.83312
LJ           3.47791        0.138318       0.0269466
LJ           1.02646        -2.66461         1.90297
LJ           3.45842          5.0154         4.61871
LJ          -1.58192         3.45864        -2.59055
LJ           4.52464         4.79469         6.08087
LJ          -6.27549       -0.685384         2.00415
LJ          -6.29324         1.18666        -5.18211
LJ          -2.19402         5.82725       -0.533552
LJ           3.53854        -4.50355         6.08861
LJ            5.5468         6.32379          3.4517
LJ           1.37389        -5.86508         4.68152
LJ           4.24106         5.47597         2.26797
LJ           1.15071        -2.20558         2.50277
LJ          -2.75195         6.36931         2.08653
LJ           5.61931         2.89144         2.91798
LJ          -2.09149      -0.0437882        -3.11899
LJ           3.83877         3.84854         5.88989
LJ           6.00537        -2.88734         -1.3062
LJ           2.24538         5.64037        -5.70397
LJ          -2.20143        -2.84867         4.17837
LJ          -3.45589        -3.75116         3.15633
LJ          -3.49891       -0.751882        -1.59234
LJ          -5.28226          4.9143         5.25106
LJ           1.75371       -0.369253        -3.95336
LJ          -4.10858         4.25536         5.83607
LJ          -5.05614        -3.02105         2.73665
LJ           3.57236        -3.81464        -1.91465
LJ          -3.67473        -1.32372        -5.12718
LJ         -0.538772        -5.77152         5.39817
LJ         -0.447813         2.85781         4.08498
LJ          -6.00076          3.3142        -1.57334
LJ          -4.16588         0.73526        -6.28809
LJ          -1.01747         4.62644         2.17667
LJ          -4.41625         -1.4627         3.44089
LJ           2.41353         4.22331       -0.165357
LJ          -4.92618         3.03922         1.44902
LJ            1.0625        -1.36267         5.28813
LJ          -2.75265        -3.93636         1.01589
LJ          0.352483         -3.3981        -6.24793
LJ          -5.17332        -3.09978        -3.04714
LJ          -4.66938         4.29727         4.20885
LJ          -5.84742         3.41024         3.97874
LJ          -3.72603         4.80622        -2.45343
LJ         -0.229034         6.05821         4.06332
LJ         -0.656675        -1.41024         4.86387
LJ          -3.72863         2.69797        -4.33242
LJ           1.54574        -4.68321         5.31627
LJ           4.94296        -5.52851        -1.48575
LJ          -4.00938        -3.79101         6.18058
LJ          -5.73783       -0.687305         1.99163
LJ         -0.932915           1.714        -4.31902
LJ           4.72397         4.54523        -3.21248
LJ          -3.07095          3.6661        -2.32395
LJ          -3.31486          3.7935         6.30776
LJ          -1.55155       -0.196096        -5.33448
LJ          -5.66515         3.33531        -4.53159
LJ           5.76552        -6.31782        -1.89046
LJ           3.47457         4.90417         3.29586
LJ          -5.69868         -5.7287         3.13255
LJ          -3.29149        -1.64779          3.1565
LJ          -1.52005         2.05885         5.68866
LJ           5.60558         2.81044          3.6955
LJ           5.60612         2.58091         -5.0597
LJ          -5.37102         3.63577         2.88806
LJ           5.61103        -6.23323        -6.42213
LJ           5.75811         2.00509        -1.64247
LJ          -2.64596         3.14176         3.93698
LJ           5.19772        -3.35136        -2.48639
LJ           6.01316        -2.28794        -1.32969
LJ         -0.160428        -3.45971        -2.50099
LJ           4.33348         5.21356         4.66745
LJ         -0.948695        -4.17024         3.66065
LJ          -6.29632         -3.4137        -4.03973
LJ          0.702639        -1.86555         0.98042
