108
#Comment!
LJ           1.85002        -1.70552         4.18496
LJ          -3.18354        -5.42926         5.20266
LJ           5.29486        -5.11234         4.89652
LJ           2.83709        -3.12928         -4.0003
LJ           5.94641         -4.8827       -0.794639
LJ          -2.83025        0.229859        -6.13211
LJ           6.13636         2.19612        -1.04097
LJ          -2.30089         1.28501         1.30753
LJ           4.78215         0.54633        -1.74625
LJ          -5.31063          2.3984        -3.54687
LJ          0.926409        -1.54071         1.83882
LJ           4.66612       -0.746213       0.0756297
LJ           2.36862       -0.206111         6.21421
LJ           3.72475        -1.27416         1.71587
LJ          -5.41936        -3.90571        -1.93438
LJ           -4.8149        -2.90618         -5.7136
LJ          -4.20262         3.02653         5.05851
LJ           4.26769        -3.16716         3.57473
LJ           3.47747          5.3247         4.71633
LJ           5.19019         2.87791        -5.46183
LJ           2.25111        -5.99903         1.01776
LJ           5.88638        -5.50737        -5.65298
LJ          -5.21752        -5.31581         4.45117
LJ           1.60774       -0.524218        -3.49369
LJ          -3.86951         5.74979        -3.79859
LJ            3.9118         4.85907          5.7264
LJ           4.41465        -3.49038        -3.60363
LJ          0.617742         1.59669        -5.96062
LJ          -2.82693         -1.4564       -0.532133
LJ         -0.118577         4.32234        -0.04817
LJ          0.912602        -3.08817         3.81971
LJ            2.4528         3.26566         3.19253
LJ           5.40046        -4.20357         2.48717
LJ          -3.64716         1.97906        0.315952
LJ         -0.901475        0.673394         5.68742
LJ           1.64696         2.73625        0.780577
LJ           6.23362        0.633149         6.01787
LJ          -5.14242        0.334475         3.89826
LJ           5.88599        -5.52578        0.311212
LJ           1.51311         1.94691         3.05993
LJ          -3.17719         5.51476       -0.950607
LJ           3.96256         5.96446        -4.46971
LJ           3.02582        -4.42968        -3.29223
LJ          -3.45372       -0.962695         3.69587
LJ          -1.46602         5.19084        0.316347
LJ          -3.19133        0.236596       -0.453506
LJ          -1.74975         1.99131         4.49402
LJ          -2.24914        -1.45801        -2.11131
LJ          -5.07594        0.523349         6.21475
LJ          -3.96486         4.00658        -4.43462
LJ         -0.152254         1.24697        -1.63998
LJ          -4.85878          3.9017         2.56053
LJ         -0.989682        -1.47683         3.42815
LJ           2.45859        -5.01449         1.70808
LJ          -4.77347         -5.4472         1.94169
LJ           5.86877         2.02053         3.64546
LJ          -5.71497         3.73046        -3.18728
LJ           2.79708         1.55249        -5.69324
LJ          -1.06298        -3.85615        -1.22973
LJ           4.39524         2.25708        -4.40619
LJ          -5.77436       -0.360947       -0.848737
LJ           4.45943         5.37586       -0.989184
LJ           -2.3985        -0.54191          2.8603
LJ           1.81779           3.332        -1.95845
LJ           2.77412         1.26186        -1.49039
LJ          -2.30126        0.795523         2.49348
LJ           5.14985        0.438512         4.51179
LJ           1.85122        -1.12244         2.13403
LJ          -4.66241         -4.2748        -5.18631
LJ          -2.82809         1.09365         6.14397
LJ          0.120782      -0.0774165         2.11576
LJ           3.54218        -4.58085         5.37983
LJ          -6.21299         4.08367        0.696282
LJ          -3.05756         2.62939         5.16827
LJ           1.56353         1.97686         6.12303
LJ           5.38123       -0.751768         2.23249
LJ          0.352732        0.402036        -2.15649
LJ         -0.835007       -0.307874         3.88368
LJ           1.58119        -1.16039        -5.01141
LJ            1.9986        0.042943         -6.1987
LJ          0.692746        -3.02745         -4.2805
LJ           3.01807       -0.788805         4.35361
LJ          -2.05748         2.70224        -4.02843
LJ           1.17292        -1.56311         5.66438
LJ           4.53016         4.53813         4.43415
LJ           2.95857        -3.15913         5.35942
LJ           5.18973         5.02675        -2.60467
LJ           6.18134        0.306568         2.28481
LJ         -0.443217        -5.13001         4.68634
LJ           -3.2451        -6.08194        -5.12263
LJ          -2.97818        -2.42991        -6.04897
LJ            2.3645        -5.42253        -2.52165
LJ           2.00721         2.49377        -5.30499
LJ           1.18397         1.41352         6.44079
LJ          -1.88363         6.23048       -0.147217
LJ          -5.82106          2.6386         5.92242
LJ          0.992653         5.20496        -2.45922
LJ          -3.60016       -0.153965        -5.86713
LJ           1.22805         1.34544         -2.5297
LJ            6.4337        -2.46064        -5.51231
LJ          -2.28151         4.55848        -6.14783
LJ           3.57301        -1.18765         1.21353
LJ         -0.719891        -3.49323        -4.92579
LJ          -2.12034         3.09056        -0.43719
LJ         -0.414431         3.55897        0.369137
LJ           4.89574         3.15974         5.70479
LJ           1.58117         -3.2783        -5.56717
LJ          -5.28929        -2.15336        -6.39528
