108
#Comment!
LJ          -5.30463      -0.0243558         4.23454
LJ           -2.3763        -6.41524         2.74237
LJ          -2.17916        -2.97254        -3.19611
LJ           5.71615        -1.78129         4.19218
LJ          -4.80191          2.4985        -2.49316
LJ           4.16223        -5.81408        -2.86226
LJ          0.484397        -4.33061         6.33783
LJ           2.17629         2.24081        -4.34846
LJ           1.47257         1.78727        -2.31148
LJ          -4.38054         2.26501         3.55061
LJ           -3.3747         1.64736          4.8565
LJ           2.33023        -4.54774       -0.387117
LJ          0.149785         -6.2628      -0.0145099
LJ          -3.94845      -0.0710883        -5.97811
LJ           1.30291        -4.35418        -1.90465
LJ          0.762082      -0.0949252         4.48744
LJ           3.03467         4.61211        0.627208
LJ           2.37133       -0.196746       -0.258216
LJ           1.38191          2.0272       -0.315077
LJ          -2.86512        -4.92625        -6.00116
LJ          0.149293         1.36418        0.985459
LJ          -4.52378        -2.26332         6.07424
LJ           1.23267         2.74733        -4.82806
LJ          -4.55839         -2.5265         3.45271
LJ         -0.949548         2.40782        -3.84634
LJ          -2.78154       -0.773728       -0.923801
LJ           4.86844         1.79578        -4.21817
LJ           3.38652         6.35819         6.39395
LJ          -5.88305       -0.572594         3.18446
LJ          -2.37391        -3.54207          3.1367
LJ         -0.507896        -2.93596         3.98634
LJ           3.64824        -3.31708        -5.04016
LJ           3.09487         1.85226       -0.643324
LJ          -4.97599         4.27606        -3.59689
LJ          0.438613         4.75029         -1.2317
LJ          0.926196         5.63263         2.64604
LJ          -1.49265        0.634112         6.35992
LJ           4.73012        -6.44384        -3.82278
LJ          -6.25962       -0.571323        -4.07987
LJ           5.32842        -5.43886          4.4727
LJ            4.0373        -1.55449        -1.63466
LJ          -3.84533        -0.77529       -0.188969
LJ           6.25664        0.260977         -3.0716
LJ          -4.04777        -1.49959         4.74096
LJ         -0.124028        -6.45861        -2.95338
LJ           1.26046        -2.26681        -4.46736
LJ           4.70003        -6.19115         4.16434
LJ          -2.92702         4.81923        0.714634
LJ           1.30847         2.84458       -0.926182
LJ          0.904209         5.53457        0.506985
LJ          -5.02782        -3.20881         4.43381
LJ          -4.30839        -5.14731         5.22297
LJ          -3.81373      -0.0613092         4.11162
LJ          -3.23084        -4.97264        -1.00313
LJ          -4.90995        -6.00526       -0.584347
LJ          -1.44592         1.30958         3.79863
LJ          0.455871         5.04853        -6.38309
LJ         -0.270591         5.64501         2.80477
LJ          -3.71748        -4.55536         3.81056
LJ          -1.31746        -2.86842       -0.888469
LJ           1.64178        0.410371        -5.20782
LJ          -3.36144         -5.7128         -1.9341
LJ          -1.49543         5.04621       0.0569324
LJ            -3.518         4.80507        -2.00501
LJ           2.74007         5.30721       -0.160892
LJ          -0.82552         2.73368        -4.01511
LJ          -2.78275        -6.05994        -2.50371
LJ            1.7705         3.37215        -4.32846
LJ          -5.55601       -0.630807        -3.65734
LJ           1.12609         2.23776          5.4452
LJ           5.92659        -2.98076         4.30278
LJ           5.31059         3.66277       -0.307312
LJ          -4.20334         3.52481         6.38302
LJ          0.404546         -5.2716         -5.2249
LJ          -3.25081        -2.74171        -1.13857
LJ           -5.2023         1.69201         2.20082
LJ           3.65106        -1.77896        0.139587
LJ           6.18835        0.978208        -5.09618
LJ           5.54749         -2.3756         1.58411
LJ          -3.47797        -4.08237         3.24099
LJ            3.8785         6.24783         2.01952
LJ           -2.6824        -2.40417        -3.85591
LJ           2.28034        -3.74856        -3.97235
LJ           4.37805        -5.36541         3.24855
LJ          -4.48227        0.704467        -5.47182
LJ         -0.744573        -3.73466        -2.94669
LJ          -4.17373         3.75282        -1.14324
LJ          -5.74888         -5.2661         5.89109
LJ           2.77886        -4.67568         -5.9374
LJ          -3.63125         1.20298        -4.78409
LJ          -3.88863         1.95691        -3.52807
LJ           4.61182        -3.06285        -5.05496
LJ           5.66933       -0.237598       -0.472187
LJ           2.82399        0.348631        -6.29219
LJ          -3.05449         3.84267        -4.40718
LJ          -1.29903        -2.28921         4.93012
LJ           1.24375        -1.09208         1.09064
LJ           2.61327        0.513282         2.45631
LJ           5.84561         1.81063         -3.4744
LJ          -1.58416         5.05688        -4.42596
LJ          -2.64658        0.442341        -4.01057
LJ           2.42948         5.10922         4.95243
LJ          -1.50767       -0.468862        0.588987
LJ         0.0499038         3.59262       -0.286283
LJ           6.37956         1.00915         4.61313
LJ           2.78553        0.190894        -5.64485
LJ          -4.33715         6.35196        -5.77127
LJ          -3.05546         1.25156         1.87246
