108
#Comment!
LJ          -6.36084         5.85537       -0.743931
LJ          -1.56666        -3.56469         4.04369
LJ          -3.36749        -5.28735        -1.39919
LJ         0.0092836        -5.06731          1.4746
LJ           4.75297        -6.18813         -6.3753
LJ          -5.76159         2.48383          4.2656
LJ           4.00046          2.9056         3.02183
LJ           5.25339          2.8156        -2.74697
LJ          -1.95766        -1.81852         5.10724
LJ         -0.408255         3.62657         5.35972
LJ          0.591836        -3.71056        -3.48895
LJ          -3.55005        -4.25157       -0.201855
LJ          -4.84722        -5.86867        -1.91839
LJ          -1.94807       -0.151239        0.755711
LJ          -6.20053        -2.74237        0.352016
LJ          -1.72137         -2.4963         4.44607
LJ          -5.33611       -0.590707        -4.12439
LJ           6.15871        -2.05871         4.43591
LJ           5.52492         2.74145        -5.80711
LJ           5.81327       -0.928664       -0.815713
LJ         -0.216618         3.94026        -5.20996
LJ           5.48784        -4.51357         4.69213
LJ          -3.60952        -2.62947        -3.01406
LJ          -3.60549        -3.03641         1.84675
LJ          -5.67113         3.32061         3.72454
LJ           1.87321         1.62392         1.38063
LJ           2.27316         6.35448         1.92311
LJ          0.926687        -3.75688         3.86132
LJ           2.85791        -0.34301         -1.0208
LJ           5.97443        -3.48149        -5.11101
LJ          -4.35627        -2.80665         2.26328
LJ           4.37543        -3.50178       -0.527988
LJ           4.42342        0.692818        -4.79491
LJ          -2.12307       -0.346985         3.71472
LJ          -4.19834         2.23076        -2.79529
LJ          -2.27721         5.98624        0.171373
LJ           5.12889       0.0828266        -1.74955
LJ           2.80649         2.05186       -0.590632
LJ          -1.57336         5.00147        -5.61466
LJ           1.73268        0.764111         6.02406
LJ          -1.57326         -4.3796        -3.11138
LJ           1.30766         4.93285        -3.85836
LJ         -0.646564         1.22831         6.18139
LJ          -2.00033         1.36411        -4.57962
LJ           4.95532        -1.43084        -1.36402
LJ         0.0278467         5.78429        -4.92474
LJ           1.81551         3.04968          2.9904
LJ           5.07631         -3.7657       -0.102148
LJ          -6.28647          2.1506        -3.83392
LJ         -0.015604          6.3358         3.08134
LJ           3.27163         6.33849        -1.82417
LJ          -1.37537         5.26952         3.32266
LJ          -2.65539         1.50182         6.07758
LJ           4.34726         1.58023       -0.497273
LJ          -4.52669        -3.59124         6.16842
LJ            -4.031         2.40295         5.30036
LJ          -3.85457         1.41741         2.81232
LJ          -3.23073         3.65567        -3.03113
LJ          -5.48897        -2.15051        -2.05624
LJ         0.0325871        -1.51381        -3.52016
LJ           1.39691        -4.64747         4.38366
LJ          -4.14508        -4.37978         2.68747
LJ          0.661372        -5.66515        -5.34766
LJ           -0.3008         -2.0649        -2.89801
LJ           5.56551         5.77352         2.33087
LJ          -5.98259        -1.02687        -4.16448
LJ          -3.87285         2.57972         2.11116
LJ          -1.49877        -2.08608       -0.628425
LJ          -4.95308        -2.10107        -1.22234
LJ          -3.80128         4.46317         2.64827
LJ          -2.82035      -0.0520325          -1.901
LJ          -5.67146        -3.33385         5.39608
LJ          -5.08644        -4.01771         6.06682
LJ           1.24038        -4.76545         6.39467
LJ           1.67705        -2.60244         2.78403
LJ          0.694692         6.09129         -4.4561
LJ           1.60335         1.23166        -4.02825
LJ           -3.9116         6.17259         -4.1779
LJ           4.54607        -5.74953        -5.28745
LJ           1.57196         2.41323        0.535393
LJ           3.10705        -5.36764         4.26702
LJ          -5.49703         5.26562         2.82527
LJ           4.12346          4.6888        -4.06846
LJ           5.33937         -4.5629       -0.407392
LJ            5.7957          2.7378        -5.53629
LJ           3.99236         3.13867         1.93693
LJ          0.566888        -1.57103        -4.74505
LJ           1.43383         2.00029         3.70853
LJ           2.17433        0.474508        -1.96106
LJ           1.17253         3.24234         5.01537
LJ           5.01957        -3.05455       -0.599466
LJ          -4.44807         1.17848         4.25322
LJ          -2.03825        -5.82223        -1.90445
LJ          -6.01201         4.62609         5.44973
LJ          -1.80359         4.08615        -0.87557
LJ           5.88397        0.184162         3.52195
LJ          -3.16813        -5.79561        0.157453
LJ          0.107328         5.85628         1.70643
LJ           5.57759        0.410181         6.14124
LJ           5.09764        -2.07473        -5.26027
LJ          -4.79861        0.796209         6.21933
LJ         -0.875899         2.14398       -0.840954
LJ          -2.63816         4.37563         4.32067
LJ         -0.140038         3.19498         3.41716
LJ          -4.54218         2.78618        -1.07979
LJ          -5.62582         3.45166         4.57142
LJ           -3.9302        0.395486        -3.76044
LJ           5.22332        -5.25896         2.54828
