108
#Comment!
LJ          -2.02152        -3.12863        -4.20832
LJ           6.46268        -1.89089         -2.7068
LJ           2.99911        -0.63625         3.56926
LJ          -2.92941         -0.4996        -3.51873
LJ           1.61389        -5.49471        -1.06405
LJ           5.47657        -2.80602         3.79144
LJ           0.86133        -3.99643         3.64659
LJ           3.61088        -3.15217         3.62858
LJ         -0.601402        -1.75505         1.75611
LJ           3.94808        -1.31966          3.1648
LJ           4.46256         1.35866         5.35667
LJ          -5.60482        -1.36254         5.98879
LJ            5.8202         1.65466        0.154149
LJ           1.14693         2.56914        -1.08482
LJ           -5.6041         2.66321       -0.030814
LJ           6.24922        -6.17707        -2.05453
LJ          -6.08678        -2.44576        -2.78261
LJ          -2.79991         6.30518        -4.32044
LJ          -3.24165        -1.32797         4.83897
LJ          -2.89112         2.36805       -0.417452
LJ          -5.97945        0.675534         2.70514
LJ          -3.91813        -4.43867        -3.41256
LJ           6.29336        -3.77601        -4.51095
LJ          -4.60573         1.85183         3.98085
LJ           1.87591        -0.87183        -4.97416
LJ         -0.587005        -2.13632        -5.81044
LJ           2.25509         4.55581        -1.73475
LJ           2.74477       -0.483256         4.00368
LJ           1.21029         4.79161       -0.385209
LJ          -2.50016       -0.144425        -3.42415
LJ          0.506545     -0.00756508        -2.18316
LJ           2.62871        -4.62967         4.75869
LJ           6.26262        -6.21155         -1.2825
LJ            4.8454        -4.52568         -6.2059
LJ           2.18861         5.79167        -1.38848
LJ           4.35859        -1.16563         4.17809
LJ           5.13862        -1.83427       0.0134146
LJ          0.391449         5.18847        -4.63948
LJ           4.79744        -3.68569       -0.222769
LJ          -3.61904         2.57072        -2.23955
LJ          0.138221         4.36773        -3.57051
LJ           -5.5756         4.19876         3.87077
LJ          -1.16609        0.264678        -0.17461
LJ          -3.87099        -3.91232        -3.56756
LJ          -6.22086         1.50769        -1.85569
LJ          -4.53013       -0.824029         5.72679
LJ           -1.6796        -3.41072         3.38842
LJ           5.38864        -3.45438        -1.07911
LJ           2.94774       -0.674906        0.693976
LJ           4.49148         2.83587         4.73155
LJ           1.81688       -0.488931         1.73301
LJ           3.96423        -5.36258         2.76765
LJ          -5.33152       -0.786481         1.26459
LJ          -4.93857        -5.63475         4.67701
LJ           2.34915         5.29472        -6.37657
LJ           3.30876         4.15739        -4.14305
LJ           4.88399        -1.43244         1.76171
LJ           -6.0323         3.75816         -3.6316
LJ           5.94935        -1.33193         -3.0983
LJ           5.45476         1.77767        -3.54775
LJ           1.66694        -6.08609        -3.78481
LJ          0.322565        -3.90765         3.24361
LJ          -2.71226       -0.216304         1.96544
LJ           0.57309         2.43965        -4.27803
LJ           2.14027         5.34546        -1.77501
LJ           1.70341         -0.4946         2.86352
LJ           3.08019        -5.70943        -1.46946
LJ         -0.713946         0.25816         0.38889
LJ           4.13003         2.69523         5.46153
LJ          -4.99102         3.60981        0.745193
LJ          -0.49128         6.31433        0.787769
LJ         -0.474208         1.34281         2.84549
LJ          -3.31687         3.27848          2.3615
LJ          -4.50034        0.269281        -4.19601
LJ           3.17697         1.59016        -1.91589
LJ           1.07442        -3.72197          4.6734
LJ          -6.33829        -4.76298       -0.259872
LJ          -1.30839         5.03526         1.28388
LJ          -3.48173        -1.54705         2.27563
LJ          -3.78203        0.738492         2.22769
LJ          -2.50714        -4.73243         1.77553
LJ          -1.82554         5.03037        -1.12521
LJ          -1.10506         3.33638        0.523808
LJ            5.6087        -6.14724        -4.59082
LJ          -4.43473         -2.6704        -1.16038
LJ          -2.06958        0.174996         3.94411
LJ           1.54234        -1.29519         1.76812
LJ          -5.68885       -0.472443        -1.63943
LJ          -3.89221         -3.0838        -1.21687
LJ           -2.7096        -3.08595         3.26731
LJ          -5.79699         4.00857        -3.59636
LJ           1.39199         1.90239         5.06504
LJ         -0.119194         4.54672        -1.85917
LJ           3.65762         0.62398       0.0181552
LJ          -5.62208         3.46046        -1.58639
LJ           2.12918         5.49258        -5.56747
LJ           5.67643         2.70216        -1.39112
LJ           5.44961          1.7927       -0.610761
LJ          -1.89592          2.0672         -1.6604
LJ           2.79484         5.38684         3.49562
LJ           5.93537        -3.37656        -6.06888
LJ          -4.80756        -0.93145        -3.83467
LJ          -1.03601        -2.62042       0.0756926
LJ           3.39427        -3.00794        -4.00067
LJ           5.15909        -1.91767         6.34906
LJ          -1.70742         1.16525        0.479398
LJ         -0.832987        -2.99217        -2.19216
LJ           6.25201        0.934119         5.87891
