108
#Comment!
LJ            1.1341        0.935008        -1.88869
LJ           5.32382       -0.715396         5.40773
LJ           4.81567        0.647233        0.185446
LJ           4.30611         3.40626       -0.443657
LJ          -5.32556         5.43858        -3.96736
LJ           4.59557         2.40135         1.36789
LJ          -2.61053       -0.327486         3.00619
LJ           3.84433        -1.39508        -3.60343
LJ          -3.63154         4.00844         2.94194
LJ          -3.65796        -2.50324        -5.03382
LJ         -0.827506         1.61489        -5.53147
LJ          -3.72517         4.59365        0.119337
LJ           2.15332        -4.93634       -0.359262
LJ          -2.18016        -4.22716         -2.3665
LJ          -1.04723         3.14017        -4.74082
LJ          -1.12242        -1.56643         4.36052
LJ          -2.48972        -1.74412        -5.39643
LJ         -0.255495        -5.06974        -6.07929
LJ          -2.21781        -2.12984        -4.48339
LJ          -4.11504        -4.12627         4.50295
LJ          -2.11636        -1.16486        -2.02369
LJ           3.70321         6.22354         2.11243
LJ           5.83847         1.59146         4.67453
LJ           0.32547        -4.44045         1.80092
LJ          -4.80142        0.258692        0.363493
LJ          -5.76796        -5.68433         1.05367
LJ          -6.27843        -4.32547        0.939773
LJ          -4.20501        0.324523         6.39747
LJ          0.448121         3.46314          1.5872
LJ            0.6448       -0.884471         2.63652
LJ           1.43426         4.77029          -4.502
LJ           3.07136        -6.20864          1.3302
LJ           4.71748         1.96508          4.7567
LJ           2.13449        -3.96055        -3.17991
LJ           5.64652         3.12471         2.31412
LJ           1.26057         -1.2055        -1.14192
LJ          -3.13526        -6.07677         5.54054
LJ          -2.05683       -0.773064         1.85863
LJ          -1.68499      -0.0150569         4.17943
LJ          -5.97256         4.43978        -1.74257
LJ           5.35298        -1.94843        -2.36638
LJ            2.8912        -4.00351         4.81431
LJ          -1.36789       -0.476346        -1.24736
LJ          -2.57589        -1.58217         2.59823
LJ           2.08392        0.861692          3.8256
LJ            -6.344         1.01306         1.82004
LJ          -5.55798         -3.0948        -2.74358
LJ          -3.82848        -2.06458        -6.17303
LJ           3.51839        -2.58895         5.84216
LJ           4.42795        0.224199         6.42271
LJ          -2.72964        -2.80947         1.29294
LJ          -2.14027         4.65059        -3.65017
LJ           -5.0091         -5.1695        -1.01994
LJ           3.98345         4.09681         0.20836
LJ           1.01727         5.22285        -2.17418
LJ          -2.54294        -5.36254         6.12792
LJ           6.10131         2.83773        -2.60728
LJ          -4.57958         3.60365         -3.1866
LJ           5.47168         6.44971         2.00761
LJ         -0.521556        -3.97198       -0.382236
LJ          -3.60759       -0.951354         5.97417
LJ          -2.30176          4.8255         3.30967
LJ           6.40589         4.64547        -4.33703
LJ           5.74485         4.34454        0.938589
LJ          -6.29796         5.72397        0.390136
LJ           3.50363         5.97265        -3.04279
LJ           5.46136        -6.37586        0.878427
LJ           2.10128         2.65123         6.30939
LJ           4.48308        -1.52607         -2.8088
LJ           3.92015         3.06049         1.75429
LJ          -1.09063        0.884866         1.40364
LJ          -1.12164         -1.0658        0.937635
LJ           -3.9984         -4.0313        -2.55969
LJ          -3.32155        -3.82493         3.88286
LJ          -5.61687        -5.27991        -6.03429
LJ           2.09166        -1.51037        0.624845
LJ           2.39968        -1.34866         2.80359
LJ          -1.68292        -1.98069         3.11246
LJ           6.04376          6.0617        -4.58096
LJ          -3.33379        -3.52469          5.0234
LJ          0.537831       -0.788476         5.83891
LJ           3.93593        -2.02263        -1.94516
LJ           3.30236        0.380175       -0.949116
LJ           -1.8826        -0.93101         3.65749
LJ           3.04144         6.11338        -5.17901
LJ          -4.32981       -0.542462         1.18174
LJ         -0.939784          1.5627         2.59845
LJ          -3.26731        -5.67318        -4.56258
LJ           3.44483        -3.04472        -2.47449
LJ           1.35473         6.24004         2.19944
LJ          -6.21741         5.01391         4.37833
LJ           5.46952        -0.75622        -1.69147
LJ           4.69981         4.97973        -3.66929
LJ           1.77479          1.5209       -0.911264
LJ          -6.16021         5.32886         -2.7441
LJ             4.852        -1.58583        -1.44078
LJ          -4.46826        -0.71414         3.04906
LJ          -1.90503         6.30436         -6.0614
LJ          -1.31426        -3.35529         -3.3315
LJ          -5.62071         3.30454        -1.02053
LJ         -0.227459        0.373176         1.70521
LJ            2.3986       -0.344239       -0.926996
LJ           3.08326        0.433269        -5.03951
LJ         -0.413062         1.54047        0.729515
LJ           6.08862         2.22581         2.18658
LJ           3.35997         2.85067        0.640157
LJ          -4.33761        -2.09502        -2.61877
LJ          -6.32929         1.56577         5.44896
