108
#Comment!
LJ          0.796847        0.713787        -2.36851
LJ           5.74755       -0.478605         5.95869
LJ           5.19396        0.323761        0.195242
LJ           4.91812         3.88953        -1.62647
LJ          -6.24366         4.50373        -3.58432
LJ           5.20992          1.9288         1.32148
LJ          -2.11631       -0.658091          2.0703
LJ           3.26426        -1.12502        -3.80382
LJ          -3.90611         4.72668         3.32481
LJ          -3.41604        -3.29013        -4.95047
LJ         -0.200379         2.09498        -5.59244
LJ          -3.95985          4.9481       -0.311533
LJ           2.61263        -4.35892       -0.187881
LJ          -1.47413        -4.89378         -3.2722
LJ         -0.708858         3.84682        -4.49581
LJ          -1.99384       -0.829457         4.39073
LJ           -3.7582        -1.21131        -5.19253
LJ         -0.126567        -4.04229         6.42485
LJ          -2.46758        -1.59125        -4.00706
LJ          -5.18346        -3.19047         3.92056
LJ          -1.75038        -2.24675          -3.274
LJ           3.33039         6.29444         2.57945
LJ           5.58969         1.80964         3.87338
LJ         -0.422422        -5.50149          2.1735
LJ          -5.39131        0.893332         1.21862
LJ          -5.57325        -4.85503         1.95833
LJ           6.39601         -3.9261         1.66189
LJ          -4.13525        0.908327         5.92393
LJ          0.317672         2.50708         1.72472
LJ           0.30943        -1.04045         2.13814
LJ           1.31605         4.85468        -4.41524
LJ            3.0187        -5.38403         2.25463
LJ           4.91073         3.15679         4.86502
LJ           1.56994        -4.55716        -3.53191
LJ           5.41257         2.79517         2.31549
LJ           1.83047        -1.04189       -0.123157
LJ          -2.79402        -5.74435         6.01059
LJ           -1.1501         -1.1188          1.9709
LJ          -1.98118       0.0245872         3.49424
LJ          -6.18302         3.66746        -1.67373
LJ           5.26845        -1.36441        -1.98046
LJ           3.71486        -3.66518         5.21269
LJ          -2.20717         0.30129        -1.29704
LJ          -2.48152        -1.73863         2.85043
LJ          0.984079       -0.410733         3.01031
LJ          -5.72843        0.998457         2.56609
LJ          -6.17215        -2.59257        -2.70983
LJ           -3.7517         -2.3638        -5.48791
LJ           3.55333        -3.26337         6.19477
LJ           4.35016       0.0605116         4.79556
LJ          -3.03319        -2.35894         1.83031
LJ          -1.82243         3.89229        -3.91442
LJ          -5.55804        -4.38132      -0.0641603
LJ           4.07723         3.50224        0.666264
LJ          0.588002          5.0128        -2.17889
LJ          -2.17232        -4.76522         6.22383
LJ          -5.95292         2.80886        -2.15721
LJ          -4.77602         3.20469        -3.50763
LJ           6.12563         6.18097         3.06844
LJ          0.762047        -3.12675       -0.264461
LJ          -3.85665        -1.71432          5.7223
LJ          -2.22614         4.97443         3.96848
LJ           6.05552         3.46227        -3.68447
LJ           6.38954         3.38747        0.935445
LJ          -5.92609         5.25585       -0.154692
LJ           3.31273         6.25011        -3.94113
LJ           6.43448         4.99889        0.862272
LJ           2.32684         2.61935         5.43391
LJ           4.04848        -1.56588        -2.23879
LJ           4.21393         3.23013         1.65575
LJ         -0.868055        0.552971         1.40984
LJ         -0.356142       -0.790486         1.28972
LJ          -2.88774         -3.6325        -2.26749
LJ          -3.07693        -3.55707          2.8941
LJ          -5.95329        -6.20289         5.84507
LJ           2.91354       -0.394985        0.652255
LJ           1.57202        -2.86913         1.44258
LJ            -1.268        -2.23255         2.72164
LJ           5.25238          5.9917        -4.82959
LJ          -3.12845        -3.11511          3.9456
LJ          0.501911       -0.864436         4.95848
LJ           3.63402        -2.72848         -1.7432
LJ           2.97103        0.302738       -0.985732
LJ          -1.48622        -1.14041         3.10893
LJ           3.98858        -6.19796        -4.90417
LJ          -4.64823       -0.119789         1.01386
LJ         -0.601027         1.35247         2.27119
LJ          -2.60929         -4.2281         -3.7463
LJ           3.77876        -3.05494        -2.86754
LJ           1.03395        -6.40133         3.33058
LJ           6.35248         5.34866         4.38936
LJ           5.76724       -0.444186        -1.66656
LJ           3.82693         4.71592         -3.3373
LJ           2.19233         2.00938       -0.703682
LJ           6.25558         4.45897        -2.51956
LJ           4.43817        -1.84076        -1.33377
LJ          -4.86569       -0.236932         2.76055
LJ          -2.64274         5.91298        -4.94469
LJ          -1.35848        -3.33679        -2.30707
LJ          -5.04288         3.20159        -1.28892
LJ          0.364005        0.849294          1.9052
LJ           2.46074       -0.724936        -1.19116
LJ            2.7959        0.226041        -5.60103
LJ          -0.30027         1.82689          1.3533
LJ             5.535         1.73947         2.28021
LJ           3.17827         2.35425        0.861128
LJ          -4.79201         -1.5036        -2.67064
LJ           6.03961          1.6055         4.94377
