108
#Comment!
LJ           2.69846         3.87435        -4.62953
LJ          -5.25036        0.602131        -4.38315
LJ          -5.77337       -0.537625         0.29264
LJ           2.26619         6.15967         5.53142
LJ           1.14553        -1.15006         -3.0856
LJ           6.06322         4.73442         2.03178
LJ         -0.324177        -2.21344         1.03332
LJ          0.779929      -0.0726505         -3.7105
LJ          -4.66258        -4.31117          6.3472
LJ          0.176364        -3.98479        -4.95804
LJ           2.36801         4.54604        -5.36183
LJ           6.05729        -6.07058         -1.5497
LJ           6.33435        -1.12801       -0.244369
LJ          0.438424         5.27636        -4.59264
LJ         -0.221687         3.33984         -1.9659
LJ          -4.60745         3.33668         1.18998
LJ           3.24221        -1.38591        -4.32515
LJ         -0.102764        -1.76899         6.31179
LJ          -2.80913       -0.808186        -2.03554
LJ           3.29294       -0.205787        0.234196
LJ         -0.456043        -3.15838        -4.01186
LJ           1.96965        -3.13317         5.47771
LJ           4.16061         2.37691         2.59139
LJ          -4.32642         1.89711         3.65591
LJ            6.3091        0.314551         5.26447
LJ          -4.80642        -1.23872         5.57095
LJ          -5.96784        -1.31436         6.12412
LJ          -2.54929          3.9352         5.53359
LJ           4.49157          2.0818         4.75939
LJ           4.03955         4.41154         1.69248
LJ         0.0988029         4.66995        -3.78707
LJ           2.17852        -3.15031        -5.92607
LJ            5.3033         1.10123        -6.41602
LJ         -0.968822         4.74768        -5.14953
LJ           3.73876        -2.99102         6.42537
LJ           3.67747        -0.23046       -0.699123
LJ          -2.46718         5.07315         4.61944
LJ          0.501057        -1.42832        0.430858
LJ          -1.97957         2.55261          1.2113
LJ           -4.5128        0.533382       -0.857005
LJ           1.92067        -1.75365        -0.62832
LJ          -5.02464        -2.37976        -5.71098
LJ          -5.73635          4.8435        0.875957
LJ         -0.864414        -3.18299        0.659771
LJ         0.0511701        -2.44697       -0.202351
LJ            -5.135          1.7876         2.56766
LJ           3.42818       -0.339699        -2.56403
LJ           -2.3458        -2.48502       -0.883348
LJ           5.70518        -3.13326        -4.53709
LJ           6.22214      -0.0996637       -0.726771
LJ          -6.03849         1.14829         2.52366
LJ            2.3948         1.89484         5.30193
LJ           3.95759         1.28068         5.31214
LJ          -5.37712         2.01383       -0.239995
LJ          -1.41681         3.52459         -2.6858
LJ         -0.857913         -2.6823         5.83041
LJ          -1.94668       -0.533956        -4.32239
LJ           6.22751          1.3808        -3.57761
LJ          -3.88419        -4.70239         1.61409
LJ          -5.81899       -0.783123       -0.983365
LJ           -4.7976        -5.93924         5.25088
LJ          -1.95753          4.5347        -5.86032
LJ           4.05838        -3.72255        -2.11137
LJ          -4.38268          1.1654       0.0122083
LJ          -3.46914          3.1761         0.47475
LJ           1.17435         6.08513         3.42832
LJ          -3.54492        -2.70716        -1.16079
LJ           2.08956         1.31288         1.43144
LJ           3.05269        -2.42945       -0.617816
LJ           2.34008         3.98589         2.24249
LJ          -1.79963          1.1207         2.34063
LJ           1.41176        -2.42241          0.4209
LJ           -1.7454        -2.40238       0.0669312
LJ          -1.55138        -1.40656         1.19526
LJ          -4.73318         3.49494         4.36132
LJ          -5.30783         5.85369        0.656906
LJ          -4.15948        -6.39627        -6.04687
LJ          -1.94914         -2.7101         1.54396
LJ            1.5984        -5.87103        -6.32866
LJ          0.228542        -3.59981         1.50728
LJ          0.381398         2.22162         4.11714
LJ           3.82317        -1.84508        -2.11329
LJ           1.70078        -2.42881        -1.54727
LJ         -0.306257        -2.67713         2.04209
LJ          -5.93426        -4.50689         -2.3775
LJ          -5.65387         0.59586         1.13053
LJ          0.977992        0.884006          1.4579
LJ         -0.969111       -0.670771        -1.87069
LJ           5.13309       -0.325826       -0.598783
LJ        -0.0886705        -3.31899         4.69639
LJ           1.71818         -3.2136         3.58329
LJ            5.9507       0.0683649        -1.82167
LJ           1.57135         1.40654        -1.80881
LJ           3.18484         3.37536       -0.491136
LJ           5.66636          3.6499       -0.397939
LJ           3.60964        -1.30306        0.213904
LJ          -5.43812        0.494248      0.00518312
LJ          -3.98999         2.92746       -0.948691
LJ         -0.444035        -2.42583        -2.63818
LJ          -4.30952         3.37011        -1.90732
LJ          -1.12988        0.184223         2.33249
LJ           2.25698        -3.79437       -0.301603
LJ           1.18689       -0.900036         4.46859
LJ         -0.332887         1.06106         1.46533
LJ           4.11885        0.347594         1.80955
LJ           3.68477         1.55648         1.79696
LJ           4.31469         0.78578        -2.67066
LJ           4.21811         1.18861         2.69242
