108
#Comment!
LJ           1.68072       -0.518356         5.98047
LJ           5.34253        0.951078        -6.36732
LJ          -0.78742        -5.01132         5.22163
LJ          -5.90171         2.46838         3.71907
LJ           -4.6458        -3.71479        0.640815
LJ           3.43835          1.1749         6.06535
LJ           6.23914        -3.47021        -4.07669
LJ          -3.17589        -1.65707         4.64739
LJ          -2.56273         3.76463        -4.93178
LJ           5.02371        0.994268        -4.44801
LJ          0.573926       -0.053999        0.818322
LJ           2.39492        -5.48972        -1.70044
LJ            2.0646        -4.55403       -0.418023
LJ           -6.2321        -4.78623        -2.14278
LJ           4.88799        -6.15727          4.1823
LJ          -5.81003         1.95453        -2.73017
LJ          -4.03512          3.0396         1.03825
LJ          -4.60114         3.99876         -1.2078
LJ          -4.44324          3.3048        -3.33148
LJ         -0.114939        -4.95334         6.06377
LJ         -0.587697        -2.74298        -0.44354
LJ        -0.0188134         5.52344         3.18913
LJ           4.40765        -5.12726        -5.82569
LJ          -1.45482         3.47991         6.03366
LJ          -1.29215         4.80781         2.22489
LJ          -5.88301        -5.04704        0.709257
LJ           1.22727         4.90846       -0.574595
LJ          -1.00044         -5.3872       -0.486998
LJ          -6.29495         5.90943        -2.89405
LJ         -0.823291        -6.13215        0.380337
LJ          -6.45575         2.28813        -3.51307
LJ          -4.65212        0.280832         5.37748
LJ          0.681494         3.16429        -2.60442
LJ           5.33961        -4.78356         4.99973
LJ           4.74384         1.34115         2.88879
LJ          -4.42567         4.31907        -4.98229
LJ          -3.19053        -3.01199         2.08149
LJ          -2.88884         -1.3642       -0.369985
LJ           5.58123         6.42371         1.63831
LJ             -4.11         6.42137        -1.00202
LJ         0.0226459         4.60273         -1.6301
LJ           3.35645         3.70966        -5.72292
LJ          0.482261        -5.28231         5.35449
LJ          -3.58318        -6.41267         6.45899
LJ          0.348434        -2.12347        -3.71305
LJ         -0.265931        -3.12216         2.65815
LJ           3.52914        -5.37548         6.43836
LJ           3.20456        -1.25086        -0.64755
LJ           5.04068        -5.45933        -1.91556
LJ           3.11567        -1.88721         5.71527
LJ           2.27106         3.60246         4.74557
LJ           1.36634        -3.06883        -5.82779
LJ        -0.0809707         5.95114        -4.75794
LJ           5.05933        -2.71964        -2.87724
LJ            3.0599        -2.04988         -3.3777
LJ          -6.10557         4.87507        -5.14589
LJ         -0.679722         4.25728        0.782185
LJ            4.3066        -1.74055         4.26164
LJ           2.04228        -2.10332         3.13016
LJ          0.668026         5.95451         4.86037
LJ          0.463192        -1.62672        -1.67567
LJ           2.67661         3.22708        -2.24619
LJ          -1.64121         2.68221       -0.693922
LJ          -3.57298        -2.38806          5.3353
LJ            -4.925        -3.02557         1.49435
LJ          -2.46143         2.71002        -1.38509
LJ          -2.69897        -5.08739        -3.69801
LJ           5.06487        -3.57866      -0.0685754
LJ          -6.29386        -5.00027         5.10735
LJ           1.59315         -6.1997         4.16582
LJ          -1.01567         3.33626        0.739432
LJ          -1.91706         3.96948       -0.816669
LJ          -6.30225         5.37813         -5.8196
LJ          -4.56522        -4.58214         1.02524
LJ          -1.24103         1.35994         3.04174
LJ           2.55594        -3.28035        -2.68237
LJ          -2.93622        0.741107        -6.16875
LJ           -1.8707        -2.14107          5.0933
LJ          0.516239        -4.78363        -6.08414
LJ           5.93393        -3.02092         2.23354
LJ           4.19973       -0.765651         5.10902
LJ           -5.7267        -5.82667        -3.56423
LJ            1.4058        -2.15907         -1.0833
LJ           1.57897       -0.588576         1.54101
LJ          -4.47993        -3.50666         5.68513
LJ          -6.00749         4.82425        -2.26338
LJ           4.76724        -2.85372         6.43682
LJ          -3.23212        -1.85094         -6.3006
LJ          -3.10897        -3.11947        -2.22685
LJ          -2.64886         4.79769         6.40261
LJ         -0.855672         1.45002        0.950252
LJ           5.28466         0.98021       -0.379054
LJ          -1.23352        -4.42306        -5.72116
LJ           1.77459         4.94471         3.90827
LJ          -1.55123        -6.41027        -6.18572
LJ          -4.20958         -2.6402        -4.44916
LJ         -0.247711        -1.07893        -5.68581
LJ           2.88292        -1.85382        -5.95131
LJ           1.21695         4.18121        -4.02324
LJ          -5.05578         4.44857        -3.12937
LJ          -3.05844        -2.65029         1.55696
LJ           1.99166       -0.392402         6.18613
LJ           -4.6523        -2.11149         1.07476
LJ           5.53378        -4.67159         -1.3047
LJ           1.97352        -4.67437         2.49846
LJ           -3.4799         -2.8198        -2.63207
LJ          -0.90752        -2.58873        -1.45903
LJ          -2.46056         1.85701         6.07173
