108
#Comment!
LJ           4.08975         3.48975          1.4714
LJ            5.4898         6.08939        -4.13481
LJ           5.13109         4.89328         1.23879
LJ           -3.7383         5.61982         5.59694
LJ          -3.24014        -5.70116         3.49194
LJ          -3.21845       0.0394736        -3.57563
LJ            2.9719        -1.76155          4.6764
LJ           5.19483         5.49586        -3.13058
LJ          0.460707        -3.06598         5.74079
LJ            5.4228        -1.76688         5.38472
LJ        -0.0418758        -4.24927         2.26135
LJ          -5.36868       -0.262868        -5.06436
LJ           3.37272       -0.394698        -3.63488
LJ           2.60201        -4.23013        -4.43154
LJ           5.90595       0.0744986       -0.637385
LJ          0.671517        -3.27522       -0.818826
LJ          -5.11513        -1.89617        -5.65807
LJ           1.27191        -3.30728        -5.58578
LJ           5.66913        -1.21675         2.36126
LJ           5.74422        -3.16377        0.331009
LJ         -0.834649        -5.49099        -4.44527
LJ          -0.79679         6.38524         1.96988
LJ           -3.3304       -0.344983        -0.86941
LJ          -1.69842         4.77353         1.08804
LJ          -3.86832        -0.80807        -5.35992
LJ          -5.32385         -4.1793        -4.67948
LJ            4.1761        -4.93542         3.99052
LJ            5.1017        -5.87548         3.37719
LJ         -0.170058         1.90582        -2.94781
LJ          -5.38906         3.01515          1.2129
LJ          -2.20873        -3.46547        0.652595
LJ         -0.243794         2.45065        -2.67657
LJ          -4.43133         5.59047         1.80089
LJ          -3.25214        -5.09423        -0.42064
LJ           2.12508         4.96851         3.01027
LJ          -0.97717         4.12655        -3.95393
LJ          -1.01965        -1.51186        -1.32298
LJ         -0.394374        -1.57938         4.46123
LJ          -3.58031        0.107413           4.863
LJ           -4.8524        -2.82803         5.40005
LJ          -3.47473        0.194473       -0.769113
LJ           -6.2055          2.3297        -3.12301
LJ           1.18519         1.34982        -1.70412
LJ          -5.27516        -4.99205         -3.1432
LJ           4.95613        -4.91268         5.50976
LJ         -0.500435       -0.706995         5.14484
LJ          -2.10472         4.68341         4.44322
LJ          -2.80727        -2.25977       -0.860225
LJ           -4.5893        -4.50574        0.429512
LJ           1.62858        -5.82186        -1.00664
LJ           2.10102         3.70954         5.82735
LJ          -4.87615          4.4234        0.962227
LJ           3.24681        0.710571       -0.826523
LJ           2.22904        -1.08966        -2.31668
LJ          -2.81625        -3.48847        -5.09467
LJ            1.2812          5.3053         2.71648
LJ          -5.52409        0.852132        0.446427
LJ           4.93178        -3.08131         4.26539
LJ           -4.7032         4.71925         5.46145
LJ         -0.651899        0.294637        -1.76841
LJ          -0.48728       -0.951499          5.1818
LJ           1.39448        -4.32453       0.0856216
LJ           3.94964        -5.88578        -4.00181
LJ          0.188028        -2.82773         4.97776
LJ          -3.70533        -1.82884         3.97713
LJ           4.79592         3.89105        -3.40816
LJ          -3.19047        -2.20196         2.83468
LJ          -5.92767         1.14553      -0.0393521
LJ          0.985823       -0.974089        0.732853
LJ         -0.859744        -3.29879         6.21842
LJ           5.42629         4.88704         4.11863
LJ        -0.0856582        -1.52252        -3.71524
LJ           2.82344         3.00985        -3.05667
LJ          0.941021       -0.738293         4.47808
LJ          -1.30429         2.84672        -3.43699
LJ       -0.00295221        -3.17399        -1.92747
LJ          -5.70727         2.80624         1.46577
LJ          -2.91463     -0.00174453         -1.6671
LJ            2.8987       -0.102103         5.59152
LJ           2.16968         4.64212         -1.4064
LJ           5.97268         3.39057         2.57962
LJ           4.36033         5.77375        -5.52729
LJ         -0.263826         4.34187         5.69776
LJ           6.33678        0.321181         4.35322
LJ          -6.39335         2.24601         6.06899
LJ         -0.369919       -0.415776       -0.939565
LJ          -1.29188        -2.00279        -3.65588
LJ           1.44164         5.74092        -1.80613
LJ          0.844292        0.405631        -3.26867
LJ          -4.31982        -2.03362         2.14785
LJ           2.15424       -0.513077        -3.44499
LJ           4.51685        -5.33826         4.20345
LJ           3.75309         5.94759        -5.69246
LJ           1.84056       -0.820958         1.13178
LJ           2.89666         6.04442       -0.416465
LJ          -4.61279          3.3989       -0.026662
LJ          0.825494        -4.77222        -3.05642
LJ           5.21152       -0.798939        -1.83714
LJ          -3.12148        -2.54015         0.12595
LJ           2.24864        -1.02484        -2.98391
LJ           5.89598         3.82123         6.35005
LJ           4.02203         1.28621       -0.210354
LJ          -1.89435        -2.84265         2.44034
LJ          -4.41649         3.62677         3.65914
LJ          -4.24719         1.36966        -5.81751
LJ          -4.88414         1.36836         2.02277
LJ          -3.12951        -4.15084        0.745629
LJ          -4.78191        -3.70832        -3.35346
