108
#Comment!
LJ          -4.62269        -4.48411        -3.40668
LJ          -2.36748        -1.01876        -3.48866
LJ          -3.25314        -1.84469        -2.34323
LJ         -0.404329         -4.8641        -0.69362
LJ         -0.168114        -3.18535        -3.02238
LJ           1.75537        -3.10394         -5.2177
LJ          -1.65176        -2.15449       -0.914485
LJ         -0.230588        -1.95236        -2.61462
LJ           3.69291         -2.7908        -4.19535
LJ           0.73646        -2.46652         -2.6322
LJ           1.60222        -4.58875        -4.09137
LJ           1.76997        -3.58166        -1.39262
LJ          -3.72252        -0.94015        -1.06794
LJ          -2.04355        0.236995        -3.68163
LJ          -2.37797         1.29626        -1.64811
LJ          -3.07741        -3.37855        -1.11519
LJ          0.470136       -0.533814        -2.77346
LJ         -0.370663        -1.19308        -3.69283
LJ         -0.591848       -0.720314        -1.51204
LJ           1.14508        -1.17436        -1.98812
LJ           1.40599        -1.51852        -3.15214
LJ           1.39416       0.0170925        -3.10808
LJ           2.26906        0.414226       -0.840517
LJ           4.01322       -0.626396       -0.905584
LJ           -3.9085        0.783084        -4.49847
LJ           -4.3044         1.57288         -3.3423
LJ          -3.09723         1.17974        -3.14518
LJ          -1.03112        0.386566        -3.09733
LJ          -3.29507         1.36406        -5.43511
LJ           -2.4596         1.81911        -4.51383
LJ          -2.36946          1.9016        -3.09071
LJ         0.0515337        0.816869        -2.95442
LJ          0.977708       0.0516804        -1.40928
LJ          0.458979         1.67018        -3.52599
LJ         -0.449514         2.48066        -1.72445
LJ           2.36134         1.37014        -2.31008
LJ          -1.93324        -4.99551        0.672488
LJ          -1.26763        -2.97644        -1.66827
LJ           -3.2751        -5.06771        0.232523
LJ          -1.58892       -0.877781        0.128427
LJ          0.814331        -3.16457        -0.93907
LJ          -1.02326       -0.661473        -2.99582
LJ          -3.10554        -1.45094       -0.434506
LJ         -0.242675        -2.23378       -0.194489
LJ          0.365836        -1.55379        -1.35559
LJ           4.64287       -0.657845         0.32361
LJ            1.9652        -1.62902        -1.03898
LJ         0.0222322        -3.07678         1.00334
LJ          -3.85708       -0.699835        -2.51308
LJ          -2.09162        0.374296       -0.950062
LJ           -5.2844         1.16734        0.613143
LJ          -4.71138       -0.704351        0.230619
LJ          0.818072        -3.44769        -3.79568
LJ           -1.0525         1.80618       -0.917546
LJ          -1.12439     -0.00993799        -0.18453
LJ          0.203804        -1.14627         0.91774
LJ           5.13469        -2.04053       0.0683896
LJ           3.12133        0.808302        -1.57583
LJ         -0.877692        -1.41041       -0.732208
LJ         0.0889978       -0.718535       -0.163558
LJ          -3.62627         2.68041        0.599359
LJ          -1.83564         2.35202        -1.88612
LJ          -5.71239         4.07232         -0.3877
LJ          -2.79366       -0.223052       -0.359998
LJ           -2.0556        0.455334        0.201484
LJ          0.229375         3.27332       -0.685726
LJ          -1.43435         2.85218       -0.550515
LJ          0.462564         2.04038        0.143424
LJ          0.699497        0.363529       -0.239054
LJ          0.548645         4.46758        0.302797
LJ          0.406882        0.969956         1.36449
LJ           1.29356         3.32076       -0.342582
LJ          -1.88306        -1.71005        0.661609
LJ          -2.07396        -1.69697          1.7499
LJ          -2.56746       -0.120291         3.41159
LJ           -2.8865        -4.06856          1.0875
LJ           1.24553        -4.57542         3.35381
LJ          -1.49724        -3.02694        0.876805
LJ          0.203941       -0.904288         3.59769
LJ          0.834481        -2.78079         1.68206
LJ          0.782942        -4.91201         1.72034
LJ           2.88502        -1.91395        -0.42778
LJ           1.69686        -2.78147        0.912535
LJ           1.72712        -3.94153         1.74003
LJ          -3.20379        -2.37458        0.401879
LJ          -4.05746        0.533613       0.0439404
LJ          -1.67692          1.2161          1.1755
LJ          -2.60354       -0.798642        0.757006
LJ          -3.01186        0.266092        0.751149
LJ         -0.623566        -0.83631         2.25981
LJ          -1.95614        -1.01127         2.77306
LJ           1.94681        -1.14799         4.81766
LJ          0.980537        -1.83529        0.202959
LJ            2.8053         1.53521       -0.750959
LJ           2.31545         1.92805         2.29408
LJ           1.59958       -0.218102       -0.137365
LJ           -3.0606          1.3373        0.400777
LJ          -2.25833         2.09626        0.674339
LJ          -1.69886      -0.0245664         4.05392
LJ          -1.47013         1.52804      -0.0786219
LJ         -0.191174        0.255314        0.835555
LJ          0.668502         3.16255        0.596864
LJ         -0.334406         1.60037         3.17048
LJ         -0.494265        0.295743         3.12116
LJ            2.4077         1.46866        0.921778
LJ             2.837        0.555122         1.55554
LJ          0.952511        0.511587         4.18567
LJ           3.25853         0.72122         3.09283
