108
#Comment!
LJ           -3.4449        -3.49368        -3.15767
LJ          -1.85899        -2.31497        -3.09667
LJ          -3.02351        -2.02374        -2.41269
LJ          -1.17998        -4.08676        -1.59743
LJ         -0.471807        -3.27018        -3.02666
LJ          0.981554        -2.43855        -3.96841
LJ          -1.39894        -1.93469         -1.5094
LJ        -0.0560026        -2.62232         -2.0996
LJ           2.53108        -3.13047        -3.59845
LJ            1.3863        -2.00194        -2.28299
LJ          0.667777        -3.47172        -3.03174
LJ           1.49358        -3.15624        -1.65507
LJ          -3.70041        -1.18206        -2.19787
LJ          -1.73897       0.0573534        -3.19221
LJ          -2.64986        0.964548        -1.78668
LJ          -2.55961        -1.78702        -1.37263
LJ         -0.376967       -0.594645        -2.37294
LJ         -0.035721        -1.05145         -3.5413
LJ          -1.25532       0.0708967        -1.87712
LJ          0.408907       -0.570202        -1.73304
LJ           1.14524        -1.06943        -3.03073
LJ           1.27173        0.622234        -2.09498
LJ           1.40094       -0.428313        -1.49739
LJ           3.31683       -0.893659        -1.48978
LJ          -3.62649        0.843746        -3.59271
LJ          -3.34394         2.03397        -3.20011
LJ          -3.29545         1.11069        -2.62891
LJ          -1.83229         1.19363        -2.40352
LJ           -1.9964         1.34271        -3.69906
LJ         -0.674061         1.79955         -3.2899
LJ          -1.82959         2.23553        -2.84355
LJ         -0.445443         1.02778        -2.09771
LJ          0.196564         0.40886        -1.77181
LJ           1.07864         1.61306        -3.12022
LJ          0.199077         2.13646        -2.43311
LJ            1.9678         1.64888        -2.02514
LJ          -2.39473        -3.92459       -0.361521
LJ           -1.8864        -3.06235        -1.15814
LJ           -3.4504        -3.62762       0.0242263
LJ          -1.91367        -2.17993        0.194571
LJ          -0.50875        -2.88938        -1.00671
LJ          -0.25682        -1.40084        -1.58184
LJ          -1.88283        -1.05483       -0.699082
LJ         0.0130843        -2.54691       0.0135649
LJ          0.747411        -2.50669        -1.16271
LJ           3.50536        -1.34844       -0.542445
LJ           1.06559        -2.04123       -0.352597
LJ           1.14285        -2.84319        0.415729
LJ          -3.37989      -0.0303633        -1.86911
LJ          -1.99887        0.142841        -1.32634
LJ          -4.46186        0.445696       0.0674794
LJ          -2.86214        -1.01845       -0.882584
LJ         0.0262893        -1.92573        -3.07613
LJ         -0.501344        0.640078        -1.03474
LJ         -0.517153       -0.398093        0.119746
LJ          0.251076        -1.62087         0.23324
LJ           2.24873        -1.65059        -1.32601
LJ           2.19225        0.451752        -1.66383
LJ          0.143811       -0.623283        -0.65526
LJ           1.12881       -0.901755       -0.389565
LJ           -3.2172         1.61085        -0.60602
LJ          -1.13364          1.7416        -1.72302
LJ          -4.40765          2.9213        -0.34964
LJ          -2.45991        0.126158       -0.289128
LJ          -1.10895        0.231725       -0.426923
LJ         -0.292816          2.1133        -1.38368
LJ          -1.05487         1.22774       -0.456417
LJ          0.172693         1.79286       -0.379378
LJ           1.00842         1.02979          -1.262
LJ           1.27822         2.81272       -0.585019
LJ          0.617813         1.54593        0.564895
LJ           1.95473         1.96558       -0.129779
LJ          -2.60793        -2.76082        0.895204
LJ          -2.18024        -1.86884         1.73635
LJ          -2.94376        -1.17522         2.67787
LJ          -2.47093        -3.79549         1.65536
LJ          0.103153        -3.85969         1.89061
LJ         -0.532284         -2.7017        0.838163
LJ         -0.211379       -0.885528         2.52595
LJ           0.75077        -3.01045          2.0148
LJ          0.591402        -3.64301        0.911699
LJ           2.25077         -2.2441        0.705797
LJ            1.5539        -2.57126         1.46096
LJ           1.76728        -3.45702         1.98331
LJ          -3.14209       -0.972012         0.66824
LJ          -3.10361       0.0313854        0.529987
LJ           -2.5009        0.693365         2.02042
LJ            -2.323       -0.763152         1.67962
LJ          -2.00263       0.0240617        0.803707
LJ         -0.482264       -0.598527         1.34085
LJ          -1.43696       -0.458544         2.11996
LJ          0.899508        -1.18799         3.50754
LJ           1.24306        -1.83528        0.673328
LJ           2.25565         1.06591        0.160386
LJ           1.81724        0.928052         2.28843
LJ           1.92905       -0.665991          1.1147
LJ          -2.85083         1.12273         0.49593
LJ          -2.16787         2.46598        0.957191
LJ          -2.30546         1.08722         3.02496
LJ          -1.60712         1.42512         1.18131
LJ         -0.191976        0.586835         1.59683
LJ          0.179679         2.80838        0.994011
LJ         -0.655853         1.91948         2.76784
LJ         -0.576696        0.738154         2.93977
LJ           1.61213         1.47576         1.03931
LJ           2.78555         1.41265         1.30572
LJ          0.531364        0.847515         2.30826
LJ           2.79492        0.859684         2.79128
