108
#Comment!
LJ           3.93698         4.80088        -4.30721
LJ          -4.65612        0.451597        -4.11839
LJ          -4.41996         -1.1044        0.149335
LJ           1.85786         6.37934         3.93035
LJ         -0.682217        -1.35287        -4.21301
LJ           5.17503         5.99512          3.1493
LJ          -0.71241        -2.39373         1.20017
LJ           0.31345       -0.271662        -3.45293
LJ           -5.4674        -3.20748        -6.20962
LJ           1.12729        -3.35996        -4.51505
LJ           2.60928         5.49851        -5.67183
LJ           5.24438        -5.52267        -1.61332
LJ          -5.67496       -0.901379       -0.615946
LJ         -0.152506         4.54297        -4.31365
LJ         -0.832238         2.38651         -1.5109
LJ          -4.26915         4.04074        0.342558
LJ           2.01111        -1.41947        -4.08252
LJ          0.180282        -1.46264        -6.17128
LJ          -2.39205       -0.725734        -2.06726
LJ           2.56196          0.1019       -0.236158
LJ         0.0546675        -3.50397        -4.09654
LJ            1.9056        -2.41376         6.41589
LJ           3.97439         2.08178         2.52488
LJ          -5.56817        0.771003         3.16612
LJ           6.10309       -0.115055         6.34562
LJ          -4.40933        -1.02063        -6.39358
LJ          -5.42215       -0.347378        -6.24551
LJ          -2.09391         3.39013        -6.28411
LJ            5.5553         1.83952         5.21699
LJ           5.34547         3.88508         3.15167
LJ          -0.47174         3.98611        -3.33821
LJ           1.96311        -2.43724        -5.32258
LJ           4.81154        0.434448        -5.63432
LJ         -0.493935         3.87875        -5.17545
LJ           2.05506        -3.97698        -5.17072
LJ           3.61857      -0.0650483        -1.70397
LJ           -2.0907         5.37842         3.62846
LJ          0.177338         -1.4975       -0.079289
LJ          -1.99845         3.70069         1.18198
LJ          -3.84038       -0.195119       -0.526767
LJ           1.71263        -1.88773       -0.708629
LJ          -4.12224        -2.14417        -5.05842
LJ          -5.61724         6.14863         1.08588
LJ         -0.864342        -3.28195        0.214527
LJ         -0.272274        -2.41516       -0.555548
LJ          -5.18053         1.49371         2.08442
LJ           2.89278       -0.516881        -2.44973
LJ          -2.51251        -2.34008       0.0627892
LJ           6.40533        -2.68879        -4.07427
LJ          -5.99414        0.135224        -0.78784
LJ           6.43386          1.7493         2.14895
LJ           3.56338         1.76405         3.93645
LJ           3.18207         2.95346         6.26129
LJ          -4.10364         3.13457       -0.221538
LJ          -1.08642         3.10149        -2.53983
LJ         -0.694615        -2.78775         5.29086
LJ          -1.33368        -1.25119           -5.06
LJ           5.58497         1.25928        -3.14562
LJ          -3.46154        -4.08847        0.961276
LJ          -4.78743       -0.485486       -0.928648
LJ          -4.60421         6.08291         4.70831
LJ          -2.10252         4.02952        -5.47336
LJ           3.37198        -4.84287        -1.01557
LJ          -4.49922         1.02464        -0.47397
LJ          -3.55536         2.74269        0.510068
LJ          0.496967         5.45912         2.32798
LJ          -2.97261        -4.29958         -1.1014
LJ           2.05931         0.71126        0.790794
LJ           2.76286        -1.81785      -0.0737566
LJ           1.78715         4.38851         2.03427
LJ          -1.45609        0.970629         1.80794
LJ           1.82604        -3.86665        0.296883
LJ          -1.07592        -1.78851        0.357517
LJ          -1.48518        -1.06937         1.11572
LJ          -4.27661         2.75671         4.18221
LJ          -4.51527        -6.36942         0.40577
LJ          -6.03002        -6.19162         6.25303
LJ          -1.72317        -3.12407        0.982068
LJ           1.32273        -4.86876         5.98474
LJ          0.840714        -3.38114         1.06905
LJ          0.472587         3.42493         3.81146
LJ           3.78057        -1.09147        -2.11364
LJ           1.83352        -2.92719        -1.22837
LJ          0.372347         -3.1816          2.0393
LJ          -5.36807        -4.21205        -1.82501
LJ          -4.96908        0.920696        0.868608
LJ          0.540487         1.03829         0.95249
LJ          -1.29771       -0.838667         -1.3695
LJ           5.84613      -0.0993461       -0.469653
LJ         -0.290758        -2.14999         4.27702
LJ          0.614962        -2.06495         3.39741
LJ           5.29544       -0.466055        -3.23769
LJ           1.12423        0.677316        -1.48547
LJ           3.23383          2.3393        -1.50288
LJ           4.96706         3.39052        0.172187
LJ           3.00904       -0.552825        0.630306
LJ          -5.34461        0.269501        0.100195
LJ           -3.3802         2.21165       -0.739522
LJ         -0.151482        -2.35387        -3.64457
LJ          -4.09506         3.18672        -1.24696
LJ          -1.30846        0.208586         2.61917
LJ           2.45137         -5.1034       -0.287493
LJ          0.760196        -1.20849         3.83385
LJ        -0.0794432        0.714736         2.09096
LJ           3.89805        0.387434          1.6798
LJ           3.10253         1.12967         1.79558
LJ           3.59713         1.26436        -2.55976
LJ           4.07209        0.902479          2.5878
