108
#Comment!
LJ           -5.6772         3.47916         6.05974
LJ          -4.38743          1.1063         5.67647
LJ           1.47794          4.5034         2.98608
LJ           5.83233        -5.17717        -3.50585
LJ           -3.3371        -1.52494        -0.52138
LJ          -5.54225         5.72965        -5.47284
LJ          -3.98439        -0.69796       -0.490202
LJ          -2.68168         1.62505         0.34081
LJ           4.77812         4.05737         -3.1063
LJ          -5.99985          3.4664        -3.84226
LJ           2.86377         4.75573         5.90317
LJ          -4.64395        -5.38003         5.52578
LJ           1.21148        -4.96523         2.97584
LJ         -0.672889         3.54864         3.45727
LJ          -2.19259         -3.8714        -3.91171
LJ           -2.6959        -2.00426         6.26034
LJ           6.34982         2.37152         5.84325
LJ           1.32524        0.956069        -5.15391
LJ          -3.77873        -5.83864         1.85741
LJ           6.14426         1.06159        0.994598
LJ            3.4562         3.96963         2.01656
LJ           3.64388        -3.41745         4.50204
LJ           5.50339        -1.52517        -5.77657
LJ          -4.93717         4.86526         6.43116
LJ          -4.64394        -1.41591         2.36855
LJ           5.90358        -4.10745         4.71313
LJ           2.68061         3.30732        -4.99087
LJ           4.65252        -2.88249         1.87824
LJ           4.33992        -1.08678         5.67343
LJ         -0.363934         1.82236         1.36818
LJ            6.2441        -1.73919         6.21359
LJ          -3.62085         2.12752         2.47267
LJ           6.18484       -0.753503        -4.05341
LJ          -1.58394         5.82003         3.70048
LJ          -3.74813         4.28417         1.72371
LJ           -1.3312        -4.88371        0.256848
LJ          -4.16152         0.70908         2.56898
LJ         -0.247264         5.90856         6.10988
LJ           3.07852         2.30778        -3.64474
LJ          0.209788        -4.91513         2.87674
LJ           4.54791        -2.08031         3.01039
LJ          -3.51381         4.00581         5.96386
LJ         -0.691749         2.46237        -1.87165
LJ          -1.51034        -5.27343         3.67267
LJ         -0.679002        -3.39638         1.64036
LJ         -0.276884         4.13297         -3.3006
LJ           5.38332         2.14247         2.68246
LJ           5.69681        -4.42394        -5.17098
LJ          -1.66028      -0.0774947         1.74569
LJ           5.25603        -4.77091       -0.907766
LJ         -0.420094         2.66836         4.69662
LJ            3.2336         3.86905         -0.6642
LJ           -2.6286         3.40689        -6.08922
LJ           3.89097        -3.54634         4.65471
LJ         -0.402711        -5.69486         5.07268
LJ           -2.9544        -4.26737         2.62323
LJ          -5.64693         4.37184         3.09437
LJ           6.37023         1.97603         4.46625
LJ           5.82936        0.525739       -0.684832
LJ          0.334397        -3.46382        0.648923
LJ          -1.62925         3.26452       -0.466091
LJ           4.29086         2.98067          2.6418
LJ           1.06472         4.63983        -2.62712
LJ            4.8767         5.18774         2.08252
LJ           2.54754        -6.27177        0.541189
LJ          0.147149        -3.93812         4.71066
LJ          -3.44597         1.53333        0.753311
LJ           2.87141       -0.604087         5.15957
LJ          -1.85986        -3.27382         3.49065
LJ          -3.84062        -2.40218         -3.8089
LJ          -4.18418        0.833734      -0.0901027
LJ          0.943871        -5.18205         5.57238
LJ          -4.99456        -1.28218        0.906831
LJ          -2.16307        -2.00769         -2.9718
LJ          -4.09316         3.88599        -5.17151
LJ        0.00739153        -6.33988         1.80398
LJ           5.75021       -0.922373        -3.68724
LJ          -2.75027        -3.25935         5.30534
LJ           1.08438         4.20463         -4.3771
LJ           2.68584        -4.60148          -6.066
LJ            4.1459         2.93716         4.44007
LJ          0.876344       -0.656674        -2.49981
LJ           5.98609        0.460389        -6.33145
LJ            2.6909        -6.19552      0.00138221
LJ          -5.02358        0.409045         2.27268
LJ           -4.0581        -3.40992         -2.9715
LJ          -3.85664         3.14202         2.56338
LJ            4.7713         3.13668       -0.470607
LJ           4.44282        -5.30544         6.31553
LJ          -5.57242        -4.06448         1.57546
LJ           6.43025         -6.0949        -2.99933
LJ           5.26846         6.10133       -0.390957
LJ           2.81561        -4.84392       -0.552226
LJ           1.19308         4.74365         1.45199
LJ          -4.18439         5.96693         1.96876
LJ           2.41344        -6.03052         1.89726
LJ         -0.634029          5.6179         2.79968
LJ           2.16712         3.39053         3.14276
LJ         0.0300987         2.17164         2.56773
LJ           3.45928         6.38954        -5.18369
LJ           3.08748        -1.58839         5.37278
LJ          0.737763        -2.80594        -4.34389
LJ           3.25475        -3.96399        -1.53652
LJ           4.67414         5.10842         6.27398
LJ            4.6904        0.240337        -4.81363
LJ          -2.60733       -0.244006        -3.14028
LJ           1.20781        0.406385        -3.91422
LJ          -5.20019         1.54829       -0.442307
