108
#Comment!
LJ          -3.43788        0.401693         0.74709
LJ           4.76218        -6.43005         5.24166
LJ          -2.23142         3.69851         3.19427
LJ          0.705101        0.376107        0.188128
LJ           1.95238          5.3835         2.09583
LJ           2.07546         5.41861         5.61091
LJ           2.94796        -5.77196        -2.23927
LJ           3.42145        -1.98971        -5.95555
LJ          0.355019        -6.29855      -0.0782256
LJ          0.243906        -6.23195       -0.623059
LJ          -1.75727       -0.196749         2.48439
LJ           3.49428        -6.08172         4.99456
LJ          -2.68068         4.22005       -0.623469
LJ         -0.170404        -4.76053        -3.60798
LJ          -3.39253        -5.59263         4.07172
LJ          -4.84518        0.162894        -6.12534
LJ          -2.52186        0.600048       -0.302033
LJ         -0.814081         5.14105       0.0676109
LJ           1.37604         5.10509        -3.39472
LJ          0.055892           1.411        -5.48992
LJ          -2.25389        -3.65899         3.40311
LJ          -4.82923         4.76855         5.00059
LJ          -2.59087         2.62082         5.80974
LJ              5.26        -4.27775        -3.26972
LJ          -6.11932        -2.14483        -3.18383
LJ          -1.03416        -4.90853       -0.708519
LJ           3.73491         6.32326         2.08339
LJ           4.50396        -1.41832         2.43776
LJ           2.29952       -0.212924        -2.55099
LJ          -4.01452         6.20944        0.351927
LJ          -4.68483         1.28495         4.90515
LJ          -4.38496         2.36116       -0.584282
LJ          -2.64393        -3.42028          5.1099
LJ           5.83068        -3.87069        -2.01027
LJ          0.978306        -5.95955        -2.82555
LJ           4.08098        -1.20101          2.2407
LJ            5.4281         3.74363         4.69099
LJ           5.85075        -4.68664         5.47772
LJ          -1.96904         3.00475        -5.10992
LJ           4.56098         4.37458        -5.71481
LJ           1.16518        -1.69343        -5.73198
LJ          -4.72797         1.48948         2.03066
LJ           2.61042        -2.82791        -4.03391
LJ           5.93528        0.679381        -5.57725
LJ          -2.01158        -2.66391         1.64823
LJ          -5.33319        -5.38657         3.16632
LJ          -5.19754         4.61955       -0.571769
LJ           4.54436        -3.19474       -0.866787
LJ           6.45854         3.76698        -4.99905
LJ           4.35387         1.61666       -0.793483
LJ          -1.95802        0.533705          2.2816
LJ          -1.44141         0.72379        -2.28534
LJ           2.61682        -4.52365        -1.73266
LJ         -0.355155        -3.24072         2.31279
LJ           3.16074         5.14831         2.22527
LJ          -1.82509         -3.3323       -0.788742
LJ          -3.58179        -4.26315         5.58635
LJ           4.65789        -4.01065         4.66833
LJ           5.64496        -4.35737         5.47172
LJ           3.15565        -2.52442        -5.13804
LJ          -3.09446        0.982147         4.97946
LJ          -3.55139        0.826038        -5.55693
LJ          -5.95174        -0.11512        -4.16146
LJ          -3.08334        -2.20207        -3.95659
LJ            5.0203         1.57829         2.99577
LJ          -4.67832        0.445002         2.44697
LJ           4.98997        -3.36984         1.72511
LJ          -5.34172        -2.70359         -1.8108
LJ         -0.745389       -0.584264         1.56206
LJ          -6.06914        -3.90119        -3.16243
LJ           -1.1821        0.131899       -0.317891
LJ         -0.511466         4.42083        -6.45095
LJ         -0.292739        -1.72864        -5.73267
LJ          -6.06817        0.189942         5.23778
LJ         -0.230125         4.21419         3.15243
LJ           4.64742          -6.033        -5.80694
LJ         -0.319115         2.54046        -3.22251
LJ          -4.21182         5.62277        -3.36268
LJ          -2.05362         5.40236        -1.87305
LJ          -3.23575          5.8631        -6.44704
LJ          -1.47181        -4.91649        0.429803
LJ          -1.75407         1.91562         2.10901
LJ          -5.41941        -4.70785        0.104088
LJ           2.54225         2.09823         -2.0062
LJ           2.75921         3.77435         5.45978
LJ            5.1284        -3.85651        -1.97341
LJ          0.558391        -6.36309         4.56344
LJ           3.68845         5.49286         5.22041
LJ          -1.24729        -1.29132        -1.92805
LJ          0.989777        0.836258         2.52122
LJ          -1.62091         3.71384         3.19355
LJ          -2.08972        -2.36571         5.20892
LJ          0.142078        -1.64602          6.3392
LJ          -4.52705        -4.30632       -0.164827
LJ           3.67227         2.36747          1.5649
LJ          -6.42688       -0.380324        -1.30333
LJ           6.19554         2.32569         6.44998
LJ           4.63929         3.44468         4.55445
LJ          -2.47367         2.57358         6.43177
LJ            1.2412        0.568913        -0.18502
LJ          -1.84716        -2.87004        -5.31204
LJ          -2.54825        -1.87821        0.662257
LJ           1.40128         4.04746         2.59561
LJ          -2.07789         3.79675         2.24833
LJ           1.28475        -2.80291         1.36299
LJ          0.325415         4.39689         3.53264
LJ          -3.17945         1.89352        -3.91526
LJ           -1.8054         2.84958         2.97175
