108
#Comment!
LJ          0.050786         6.14291         2.86371
LJ          -3.64707         5.56049       -0.924221
LJ         -0.245731        -3.46253       -0.550675
LJ           1.84544        -2.73172        -3.72615
LJ           3.69466        -3.04267         -5.8236
LJ           2.73988         1.32202        -2.44372
LJ          -1.85356        -1.97762        -6.31548
LJ        -0.0297953         2.32227        -2.21124
LJ           5.09504         3.79723        -5.99266
LJ          -4.27427         5.24138       0.0106729
LJ           5.88145         1.71048        -4.32733
LJ           5.96519         1.90955         1.85321
LJ           1.39612         -6.4227         4.10801
LJ          -5.13429         3.77119        -3.88879
LJ          -3.86087         1.38349         5.29616
LJ          -6.05222        -1.29206         4.33094
LJ          0.928474        -1.19333         2.35771
LJ          -3.13825        -4.58246         1.24182
LJ           2.81688       -0.768065       -0.514446
LJ          -4.30715       -0.932234        -4.62949
LJ          -5.93966       -0.576758         6.04022
LJ          -2.74363        -4.81259         1.58619
LJ          -1.63893       -0.776825        -1.27196
LJ            1.9527         0.43106        -4.67901
LJ           3.40805         4.79256         3.13339
LJ           3.68682         1.48586        -1.21052
LJ         -0.814952         1.03352        -5.31028
LJ          -1.78414        -3.70792         4.75625
LJ          -6.04554         4.68163         6.25025
LJ          -1.94121         2.52398        -5.79232
LJ           -3.8814        -1.37184        -5.87236
LJ          -1.55896        -1.60526        -2.86168
LJ           2.02298         1.70293          2.7877
LJ           3.14326         2.36818        -5.64046
LJ          -3.64921       -0.507377       -0.146809
LJ           1.03396       -0.105094         3.90492
LJ          -1.38432        -2.37307        -2.89743
LJ          -2.57207        -5.08267         4.04628
LJ          -2.00978         5.47205       -0.837546
LJ           2.23406       -0.561283         -3.3569
LJ           3.49014         3.34541        -0.20344
LJ           4.63674         5.24444         -6.4432
LJ           6.27724        -5.95268         3.45955
LJ           4.26723          -6.288         1.12269
LJ           1.28338         4.93848        -1.38011
LJ          -1.45738       -0.375435        -5.17617
LJ            3.1494        -3.83094         3.50231
LJ          -4.43644         5.72145        -2.73322
LJ          -2.99647          5.4387        -0.05891
LJ          -6.00218        -2.06576         2.31436
LJ          -5.98657         5.99583        -5.48078
LJ           3.96412        0.488145        -3.45779
LJ          -2.78015        -3.28385          5.7866
LJ          -2.66476         3.46884         4.08127
LJ          0.659824         1.91138        -0.68751
LJ           5.86887        0.339787         4.55315
LJ           5.26036         5.44814         4.14468
LJ          -3.72951          1.5117        -2.13045
LJ          -3.14182       -0.332411         2.86061
LJ          -2.99265          2.8454        -5.89049
LJ            2.3148        -1.80681         -6.2613
LJ           4.02385        -5.26007        -4.21304
LJ           2.78135        0.713211        -5.42776
LJ          0.509818         1.84617        -3.84878
LJ           2.59103         3.89034        0.289996
LJ           1.33334       -0.874274         -2.9704
LJ          -3.14243         1.47364        -0.59565
LJ           3.00518        -4.20171        -6.12164
LJ           1.97973         5.99375         5.70972
LJ          -1.55592        -2.72406        -6.37126
LJ          -5.59039          3.5059        -4.49801
LJ           3.66593         3.58843         5.30057
LJ          0.879373         4.98963        -5.79506
LJ           5.68303        -3.01192         1.04115
LJ           6.29205         2.77581         6.44443
LJ           3.84553         -4.3792       0.0260877
LJ          -3.85999       -0.994724          2.5888
LJ           5.18852         5.73262         1.01216
LJ           5.97262        -2.19265         2.17806
LJ         -0.198402      -0.0250221        0.508471
LJ          -2.61088         4.63608        -5.82549
LJ            4.5584         4.68888        -1.98236
LJ          -1.87371       -0.384993        -2.19117
LJ          0.501746         5.23657         5.58917
LJ          0.266454         4.99672       -0.674126
LJ          -4.28476           6.245        -1.94245
LJ          -4.47069         4.27108        0.980948
LJ          -2.43692         5.13486         2.78776
LJ          -5.57752         -5.2975         3.15193
LJ          -5.04326         4.76573      -0.0831916
LJ         -0.542286          3.0566          1.0388
LJ           2.65413        -1.39916        -5.12327
LJ           -2.8092         4.02115        -5.70468
LJ          -1.94053         4.06649        0.110827
LJ           1.97333         6.02912        -2.47834
LJ           4.02015        -4.39259         -5.9746
LJ           -1.5151         4.42835        0.471246
LJ          -4.49739        -2.65952         -2.6241
LJ           2.98193       -0.596335         1.96926
LJ          -4.43332         1.89806        0.156361
LJ          -2.49588        -2.48292        0.617151
LJ          0.634362        0.129303         3.41681
LJ          -6.07875        -6.17809       -0.946535
LJ           3.88511        0.834053        -4.07522
LJ           1.54602        -4.99769         5.90723
LJ         0.0712399         1.01764        -1.53191
LJ          -1.44637         2.31268        -3.09419
LJ          -4.98095        0.953756          -5.717
