108
#Comment!
LJ           3.72084         4.62459        -4.35408
LJ          -4.76281        0.479347        -4.16654
LJ          -4.62309        -1.05027         0.25037
LJ           1.93387         6.33839         4.22063
LJ         -0.475056        -1.39586        -4.09222
LJ           5.34137         5.77639         2.94871
LJ          -0.62058        -2.34893         1.21295
LJ          0.407444       -0.203203         -3.4986
LJ          -5.32281        -3.41201        -6.27982
LJ          0.977947         -3.4931        -4.61335
LJ           2.55745         5.33311        -5.62713
LJ           5.39229        -5.62408        -1.60172
LJ          -5.89012       -0.967883       -0.567595
LJ        -0.0103517         4.71783        -4.37259
LJ         -0.698693         2.54112        -1.55952
LJ          -4.35944         3.95666        0.519475
LJ           2.23687         -1.4104        -4.12613
LJ          0.132514        -1.50919        -6.24826
LJ           -2.4897       -0.739735        -2.07359
LJ           2.67491       0.0726569       -0.169698
LJ        -0.0769963        -3.38774        -4.02119
LJ           1.91466        -2.54189         6.20427
LJ           4.00336         2.15746         2.52425
LJ          -5.33315        0.953977         3.30537
LJ           6.02811       0.0263253         6.23992
LJ          -4.43631        -1.07181         6.33927
LJ          -5.55146       -0.515433        -6.33065
LJ          -2.18009         3.51148        -6.45745
LJ           5.37255         1.88765         5.12741
LJ           5.10341         3.97398         2.88562
LJ         -0.367033         4.10192         -3.3912
LJ           1.98627        -2.53167        -5.40006
LJ           4.99859        0.498688        -5.86947
LJ         -0.613212         4.01325        -5.21022
LJ           2.39842        -3.83588        -5.41703
LJ           3.65008      -0.0697643        -1.49898
LJ          -2.15892           5.324         3.80759
LJ          0.225392        -1.50797       -0.018667
LJ           -1.9835         3.49591         1.19204
LJ          -3.97017      -0.0995831        -0.63473
LJ            1.7875        -1.87607       -0.699685
LJ          -4.28267        -2.18867        -5.16829
LJ          -5.66417         5.90048         1.06224
LJ         -0.911007        -3.19101         0.30953
LJ         -0.392741        -2.36796       -0.326477
LJ          -5.14156          1.5771           2.151
LJ           2.94613       -0.472155        -2.50923
LJ          -2.50497        -2.35724       -0.120683
LJ            6.2773        -2.76996        -4.15812
LJ          -6.14982       0.0605452       -0.769916
LJ          -6.45293         1.64705         2.21984
LJ           3.33476         1.78628          4.1765
LJ           3.32421         2.65046         6.10935
LJ          -4.29967         2.87171       -0.318875
LJ          -1.18005         3.18555        -2.58937
LJ         -0.751479        -2.78283          5.4245
LJ          -1.33209        -1.14526        -4.80379
LJ            5.7053         1.29147        -3.22802
LJ          -3.54018        -4.20137         1.08175
LJ          -4.91197       -0.443024       -0.902637
LJ           -4.6509         6.24613         4.90752
LJ          -2.06518         4.10121        -5.56289
LJ           3.50861        -4.63772        -1.22549
LJ          -4.48231         1.13631       -0.405043
LJ          -3.50458         2.81318        0.533776
LJ          0.616511         5.57577         2.52776
LJ          -3.08601        -4.01995        -1.12028
LJ           2.04695        0.822861        0.909358
LJ            2.7909        -1.93984       -0.189559
LJ           1.88974         4.31308         2.07049
LJ          -1.55561         1.02612         1.89487
LJ           1.65851        -3.60446        0.411375
LJ          -1.11419        -1.90763        0.334956
LJ          -1.48063        -1.19678         1.03448
LJ          -4.35906         2.89391         4.21663
LJ           -4.6342         6.44289        0.435863
LJ          -5.67865        -6.22829         6.26643
LJ          -1.67894        -3.06085        0.948912
LJ           1.37122        -5.05141         6.09677
LJ          0.839778        -3.43733         1.07638
LJ          0.455473         3.20605         3.86777
LJ           3.81658        -1.27885        -2.11469
LJ           1.80233        -2.83069         -1.2949
LJ          0.265367        -3.11583         2.06917
LJ          -5.47031        -4.26502        -1.92598
LJ           -5.0953        0.864761        0.949406
LJ            0.6505         1.02342         1.01463
LJ          -1.21731       -0.804042        -1.45504
LJ            5.7107       -0.127284        -0.49304
LJ         -0.255721        -2.36247         4.32744
LJ          0.839049        -2.27988         3.42081
LJ           5.41572       -0.377302        -2.98874
LJ           1.20344        0.811917          -1.545
LJ           3.22365         2.53095        -1.31774
LJ           5.09468         3.43831       0.0680343
LJ           3.14109       -0.711428        0.591249
LJ          -5.39584        0.243817      0.00139612
LJ          -3.48377         2.33073       -0.779208
LJ         -0.205089        -2.33494        -3.53395
LJ           -4.1595         3.24306        -1.33317
LJ          -1.28689        0.167349         2.59709
LJ           2.41081        -4.88186       -0.284463
LJ          0.841099        -1.13561         3.95206
LJ         -0.119421        0.783465         1.99375
LJ           3.90419        0.403007         1.70071
LJ           3.23908         1.19296         1.78452
LJ           3.73036         1.19356        -2.58863
LJ           4.13041        0.931154         2.64728
