108
#Comment!
LJ         -0.165173         1.32757        -1.29725
LJ           1.50237        -6.28806        -2.41532
LJ           3.42224         4.08016         2.81394
LJ          -3.53963        -2.07299         5.09123
LJ          0.268923         5.63322        -2.70938
LJ          -3.11205        -4.70202         4.17238
LJ          -1.83682         2.92037           1.155
LJ           5.92247        0.471448        0.290128
LJ          -3.53792        -3.16836         1.83492
LJ          -6.03079        -4.39945         1.61238
LJ           5.72277        -4.74786         1.12614
LJ           -4.8697         3.65673       -0.142249
LJ         -0.179722         3.05653        -1.48919
LJ          -1.27827        -5.57648         3.02665
LJ           4.12512         4.50868         3.18499
LJ          -1.74697        -5.52574        -5.95182
LJ          -5.91304        -5.31797        -0.99808
LJ          -2.01138         1.19677        -1.47688
LJ          -1.72894        -5.12681        -4.63718
LJ          -1.73211        0.161595        -6.13474
LJ           -5.5345         2.06231         4.40894
LJ          -2.50904         1.70299        -5.09813
LJ          -4.30959        -5.06902        -2.65765
LJ           3.31433         3.34459          1.8274
LJ           2.16923        -3.94917         2.79526
LJ           5.78628        -5.38798        -4.70916
LJ           3.17173       -0.692249         -3.7545
LJ         -0.413297         3.75846        -1.57079
LJ          -1.66792        -2.27873         5.29523
LJ          -3.11706        -0.83255         4.45733
LJ           -6.1387       -0.794073        -2.50598
LJ          -5.25575         3.85873          5.2955
LJ          -1.65033        0.502909        -4.68507
LJ          -4.18249         6.08486         3.60198
LJ         -0.388931         2.73185        -5.49168
LJ          -1.64665         3.09659         1.31522
LJ          -5.44154        -2.03231        -4.64756
LJ           1.82528          5.9565       -0.753094
LJ          -5.77933         2.27175        -5.80837
LJ          -3.47336        -5.30585        -5.16442
LJ          0.990613         1.75841        -6.43984
LJ          -4.39568          5.7063          -3.842
LJ           4.87516        0.286687         1.58078
LJ          -3.70882         5.65721        -4.35123
LJ           5.30171         0.45593        -5.28152
LJ          -6.08688         -3.5663        -2.68016
LJ           -1.8671        -3.78394         6.38901
LJ          -1.73042         2.32167        -4.43039
LJ          -3.15754         4.55313         2.05884
LJ           5.02271         4.23077        -5.12351
LJ          -2.74672        -4.26758        -5.83011
LJ          0.514747         5.41532        -2.19105
LJ         -0.240434        -3.09584        -1.60942
LJ          -1.60158         2.63982        -4.32284
LJ           4.88335        -3.52681        -1.27389
LJ           5.40688        -1.93372         3.40974
LJ           5.66531       -0.660975          4.8455
LJ             3.664          2.1304        -6.18277
LJ         0.0590569        -6.36532        -3.66483
LJ           2.70066         1.37157        -5.58908
LJ          -3.58272        0.758679         3.89816
LJ          -5.54492         4.21979        0.682859
LJ           5.10866        -6.44568        -1.54628
LJ          -1.21016        -1.51941         1.37829
LJ          -1.85838        -5.33821        -5.14526
LJ           4.25644        -3.60509         -4.6287
LJ         -0.470874       -0.891567       -0.240121
LJ           -4.4863         0.67665        -5.57362
LJ           3.95055        -3.14534        -5.34279
LJ           -2.8173         4.59098        -0.33595
LJ          -1.74944         3.62567         -1.6022
LJ          -1.96334        -6.34275       -0.434017
LJ          0.371332        -4.11128        -3.14584
LJ          -3.31019        -2.39144         2.18084
LJ          -1.78777        -4.26998        -1.23539
LJ          -6.06991          3.2977        0.382214
LJ          -5.24574        -2.40414        -6.35822
LJ          -2.96709        -5.10477         4.75277
LJ          -3.00825         3.94485        -2.41019
LJ           4.75062         4.70944        -5.25516
LJ          0.908838        -4.71224        -6.36532
LJ          -2.16562         3.69798        -4.56095
LJ          -3.47618        -3.60377        -5.05978
LJ          -3.96901         -2.6183        -6.33482
LJ           2.65031        -1.10104        -5.84985
LJ           1.37334         3.71516       -0.863245
LJ         0.0808928        -2.29559         5.88792
LJ           3.48819         6.25119         5.24162
LJ           4.05005       -0.789053        -2.21994
LJ           3.77655        -4.76226        -1.03447
LJ         -0.229433         0.84508         1.16622
LJ          -3.86135        -3.29538         0.95046
LJ          -2.43251        -5.84309         5.45988
LJ           1.30103        -1.76109         1.42002
LJ            1.8513         4.14099         4.76547
LJ          0.670873        -3.71227         1.14734
LJ          -6.43098         0.67346        -4.23101
LJ          0.339362         3.02548         6.12175
LJ            1.8233         4.07955        -3.74791
LJ           5.16207         6.24989         1.82385
LJ            2.5236        -2.14699         1.59738
LJ           5.35581        -1.48065         1.36165
LJ           6.26009        -3.42102        -2.09916
LJ          -1.02712         5.91916         3.77604
LJ           3.64906         1.42514         3.31375
LJ          -6.04951         5.70856        -3.18908
LJ          -2.75772          3.0107        -0.94183
LJ          -5.66663         -4.1538         3.63204
