108
#Comment!
LJ         -0.473344        -4.32087         4.12555
LJ            5.5346         -6.0334        -5.78016
LJ           5.43793        -2.54642         2.72266
LJ          -6.00887        -6.28458        -4.48731
LJ           2.39474         2.28334         5.92056
LJ           6.36664       0.0284623        -1.61924
LJ         -0.979769        -1.43182        -1.73483
LJ           6.34257         5.17406        0.941823
LJ           6.18035          4.2802       -0.708855
LJ           1.06353         5.58192        -3.51754
LJ           4.64847        0.188899        0.829217
LJ           5.76197         2.73983         1.26078
LJ           1.15835         6.07997       -0.120689
LJ           4.78318          -4.783         1.96571
LJ          -1.51011         5.09279         3.99748
LJ           3.66644        -1.43048         2.25394
LJ          -3.08944         5.50101         2.43988
LJ           1.73859        -6.08474        0.384929
LJ         -0.266653         3.94985          4.1039
LJ          -1.64596         5.69281        -1.02094
LJ          0.594188         4.69108         4.90707
LJ           5.42963         5.87485         3.04097
LJ             5.922        -3.97163         2.66119
LJ          -2.85674         4.23646        -2.29946
LJ          -3.09309        -4.38913         1.25478
LJ           3.98965        -5.94399         4.65281
LJ          0.524428         4.38538         4.27533
LJ           2.37306        -4.27738         -3.3436
LJ          -3.27611         2.82833         -3.6604
LJ           1.94361         0.93395         5.52048
LJ           2.47903         2.98455       -0.415806
LJ           5.03969         0.71586        -2.67545
LJ          -2.46516         4.64489        -2.86386
LJ         -0.871654        -6.33056        -1.70592
LJ            1.9066         3.35092        -1.08585
LJ          -2.78276         1.51264         2.47885
LJ          -2.96844        0.410622        -5.13539
LJ          -3.98147         3.53901         5.60213
LJ           -1.5321           6.156        -3.75944
LJ          -6.25641        -4.79603        -1.15621
LJ          -4.06586         2.42583       -0.630096
LJ          -5.55975         3.64806         1.27555
LJ          -4.49076        -3.60126        -1.94237
LJ           4.29878         3.43937        -2.40317
LJ           6.17825       -0.553199        -5.06325
LJ           1.59878        -5.66193         2.26373
LJ          -2.77106        -3.23883          -6.112
LJ          -3.59999        -6.39932        -2.04515
LJ           4.67155        -5.94066         2.92092
LJ          -3.97384        0.821078         2.09597
LJ           3.27497            3.52         -6.2888
LJ          -3.91389        -6.18418         4.61958
LJ           1.25121         3.63156        -4.01238
LJ           5.90088         2.01657        0.318993
LJ           5.04452         2.90234         4.79617
LJ           1.71099         5.50978        0.235354
LJ          -2.18756        -2.68482         -6.2743
LJ          -3.10457        0.853841        -2.82563
LJ          -6.31866       -0.531613        0.597964
LJ          -5.44931         3.86966        -3.20211
LJ           3.17492        -4.09158         5.83011
LJ          -2.66065        -5.10634         5.15098
LJ           2.57494       -0.941008         1.91132
LJ          -4.60595         5.25349         3.01882
LJ           6.27005        -5.05241         1.69333
LJ           4.97384        -2.60466        -3.37804
LJ           4.31449         1.28182        -2.63049
LJ          -1.70572         4.62196        -5.69031
LJ          -1.30867        -5.99818        0.665826
LJ          -3.76069        0.664639        -5.94133
LJ          -3.52522        -3.51312         5.41771
LJ          -1.04018        -2.30977          -2.205
LJ            3.2652        -1.82331       0.0448154
LJ            2.5205       -0.709006         2.92872
LJ           5.86256         4.48203        0.135632
LJ          -3.18474         2.79612        -2.01188
LJ           3.43274        -5.75974        -3.94688
LJ           4.14246         3.43074         4.28164
LJ           4.43062          1.9538         6.37675
LJ           4.99109         -3.8039         4.87154
LJ           1.22347         3.34913        -2.69717
LJ           3.18104         3.46713        -3.99283
LJ          -4.06839          2.9318         3.90667
LJ          -5.63156        -1.71978         3.63156
LJ            4.4326        -5.94964        -1.61902
LJ          0.437833        -2.02873       -0.397776
LJ           1.12564        -2.14735        -2.77229
LJ           1.53115        -3.01027        0.876344
LJ          -4.24063         2.91253        -3.12958
LJ          0.487168        -3.27157        -2.64145
LJ          -2.57251         5.38071         3.11573
LJ          -6.33725         -2.3043         -1.1602
LJ          -5.19312          2.7492         3.51826
LJ           1.98998        -5.15961       -0.482648
LJ          -4.76682         3.40844        -3.30276
LJ          -6.03833        -4.52304         5.65899
LJ           5.38059        -5.35968       0.0903326
LJ          -2.92278         1.40241         2.63684
LJ          -2.10439        -6.31719         5.64017
LJ           4.23603         -5.6545         3.73479
LJ           1.40338         4.22936        -3.97206
LJ         -0.515554       -0.348905        -5.72445
LJ           5.45421       -0.183074         4.17966
LJ          -5.75799        -4.21576        0.410094
LJ           3.34792         5.21246         3.48549
LJ           1.92755        -1.09539         4.43595
LJ           1.70894        -3.01218         1.61223
LJ           1.36986        -5.00229          1.3117
