108
#Comment!
LJ          0.488271        0.494538         -2.8164
LJ           6.07529       -0.170542        -6.44558
LJ           5.55441       0.0334605        0.203273
LJ           4.99187         4.29019         -2.8197
LJ           5.70829         3.38295        -2.87666
LJ           5.74785         1.84473         1.16609
LJ          -1.67764        -1.06391         1.71223
LJ           2.76822       -0.908402        -3.84183
LJ          -4.10574         5.46447         3.73828
LJ          -3.14567        -3.81178        -4.89677
LJ          0.418887          2.6061        -5.63376
LJ          -4.26614         5.28647       -0.742723
LJ           3.04413        -3.74759      -0.0139611
LJ         -0.916394        -5.31332        -4.23301
LJ         -0.649436         4.50344        -4.12081
LJ          -2.82667       0.0353747         3.84789
LJ          -4.98411        -1.21235        -5.02354
LJ        -0.0218665        -3.02267         6.00153
LJ          -2.65885        -1.24818        -3.45621
LJ          -6.30688        -2.33125         3.33001
LJ          -1.60827        -3.35773        -4.60669
LJ           2.87785        -6.14088         2.97242
LJ           5.41038         2.25822         3.24392
LJ          -1.15102         6.35482         2.56054
LJ          -5.72546         1.03999         2.22093
LJ          -5.51571        -3.80489         2.80733
LJ           6.30047        -3.74271         2.37972
LJ          -4.06198         1.46762         5.44415
LJ           0.90502         2.25571         2.45993
LJ          0.155806        -2.26096          1.2542
LJ           1.18417          4.9361        -4.31219
LJ           3.03501        -4.98172         3.25504
LJ           5.22991         4.22549           4.901
LJ           1.01399        -5.15135        -3.88083
LJ           5.49613         2.13032         2.23008
LJ           2.13004        -0.86798      -0.0554004
LJ          -2.37336          -5.309        -6.38257
LJ         -0.579577       -0.626284         1.82957
LJ          -2.22905       -0.625102         2.58559
LJ          -6.13791         3.38533       -0.951189
LJ           4.44449        -1.22663        -1.59753
LJ           4.58724        -3.35034         5.47347
LJ          -3.04876         1.06376        -1.35304
LJ           -2.1463        -1.99805         2.71836
LJ          0.481491        -1.08251         3.10677
LJ          -5.09553         1.26727         3.21568
LJ           6.19601        -1.99412        -2.65455
LJ           -3.5523        -2.37877        -4.65194
LJ           3.53968        -3.91373        -6.24073
LJ           4.39048       -0.127876         3.18274
LJ          -3.32205        -1.78905         2.40388
LJ          -1.19829         3.17445        -4.32714
LJ          -6.12956        -3.59282        0.974423
LJ           3.95355         2.88083        0.397477
LJ          0.161916          4.7999        -2.20365
LJ          -1.86341        -4.26707         6.28903
LJ          -4.90578         2.06278        -2.21213
LJ          -5.08938         2.82537         -3.7282
LJ          -5.98412         6.12278         3.77122
LJ           2.08278        -2.32591     -0.00706136
LJ          -4.09664        -2.52037         5.58197
LJ          -2.23288         5.10876         4.59756
LJ           5.60377         1.88995        -3.78426
LJ          -5.98281         2.56397        0.973733
LJ          -5.75696         4.60989       -0.322967
LJ           3.10622        -5.86826        -5.05932
LJ          -5.33019         3.33263        0.494619
LJ           2.55771         2.58474         4.55767
LJ           3.68447        -1.80823        -2.11759
LJ           4.20188         3.10913         2.12762
LJ         -0.801125        0.383235         1.71115
LJ          0.367846       -0.581073        0.712525
LJ          -2.34263        -3.37047        -1.96385
LJ          -2.74314        -2.97541         1.77494
LJ           -6.1102         5.90395         4.82768
LJ            4.2767        0.921095         1.15226
LJ          0.734375        -4.28966      -0.0756742
LJ          -1.13891        -2.58985          2.9879
LJ            4.3425         5.92919        -5.06012
LJ          -2.77264        -2.75427         3.05345
LJ          0.446165       -0.918396         4.18278
LJ           3.70984        -2.93749        -1.82425
LJ           2.46378       0.0534697       -0.945007
LJ          -1.19544        -1.25899         2.66799
LJ           4.77143        -5.75554        -4.35747
LJ          -5.30046        0.722502         1.09114
LJ         -0.384802         1.02451         2.72123
LJ          -1.69319        -2.66902        -3.16877
LJ            4.1288        -2.66729        -2.80089
LJ          0.714986        -6.09932         4.43773
LJ           5.65021         5.34448          4.6725
LJ           6.00758      -0.0611164        -1.53798
LJ           3.29807         4.04934        -3.04118
LJ           2.66607         2.43652       -0.455713
LJ          -6.38761         4.24134        -1.86372
LJ           4.20754        -2.31362        -1.14627
LJ          -5.12616       -0.126262         2.14739
LJ           -3.3812         5.53715         -3.8424
LJ         -0.980036        -3.26874        -1.20659
LJ          -4.93151         3.40445        -1.69151
LJ          0.346411         1.36801         1.69734
LJ           2.46313        -1.15343        -1.06498
LJ           2.51473       0.0097019        -6.15592
LJ         -0.472606         1.39909        0.983156
LJ           4.90075         1.20039         2.60862
LJ           3.36252         2.18574         1.09913
LJ          -5.32923       -0.988473        -2.73233
LJ           5.32976         1.67835         4.22897
