108
#Comment!
LJ           -4.7291        -4.57317         -3.4287
LJ          -2.38741       -0.884066        -3.52351
LJ          -3.29159        -1.80792        -2.30537
LJ          -0.33589        -4.92281       -0.609877
LJ         -0.119328        -3.12693        -3.01338
LJ           1.84151        -3.17677        -5.34006
LJ          -1.69085        -2.21342       -0.848937
LJ         -0.221705        -1.91234        -2.68414
LJ           3.79472        -2.75962        -4.24964
LJ          0.681018        -2.45959        -2.63747
LJ           1.69821        -4.66843        -4.18801
LJ           1.87407        -3.63966        -1.41019
LJ          -3.74547       -0.871262        -1.02906
LJ          -2.06453        0.260802        -3.70098
LJ          -2.38424         1.27363        -1.64505
LJ          -3.11136        -3.51477        -1.10161
LJ          0.468735       -0.592183        -2.79076
LJ         -0.335463        -1.23495        -3.73133
LJ         -0.565483       -0.826451        -1.48393
LJ            1.1649        -1.18984        -1.95736
LJ           1.41234        -1.59132        -3.23509
LJ           1.47097      -0.0131141        -3.20306
LJ           2.31582        0.500261       -0.762441
LJ           4.07583       -0.614524       -0.820299
LJ            -3.907        0.808715         -4.5635
LJ          -4.37681         1.51296        -3.36979
LJ          -3.08347         1.18412        -3.21796
LJ         -0.966043        0.348287        -3.16681
LJ           -3.4123         1.36177        -5.55192
LJ          -2.64172         1.79955        -4.61497
LJ          -2.39251         1.87092        -3.09477
LJ         0.0761478        0.708338        -2.97909
LJ           1.10336      0.00990871        -1.37218
LJ          0.434701         1.71846         -3.5884
LJ         -0.525439         2.49549        -1.63972
LJ           2.39094          1.3324        -2.32257
LJ          -1.88737        -5.11312        0.720743
LJ          -1.21192        -2.93577        -1.70236
LJ          -3.22039        -5.18543        0.271444
LJ          -1.67378       -0.800445        0.158135
LJ          0.838769        -3.14175       -0.893988
LJ          -1.12044       -0.565277        -3.06715
LJ           -3.1698          -1.493       -0.300982
LJ         -0.309449        -2.19073       -0.244497
LJ          0.308804        -1.51786        -1.39161
LJ           4.73584       -0.598478        0.376997
LJ           1.96361        -1.57121         -1.1245
LJ        -0.0684795        -3.06362         1.03759
LJ          -3.89069       -0.809362        -2.53421
LJ          -2.12348        0.353106       -0.890078
LJ          -5.33376         1.22289        0.657637
LJ          -4.83437       -0.651078        0.350583
LJ          0.841793        -3.60599        -3.85497
LJ          -0.99127          1.9731        -1.02651
LJ            -1.154        0.103121        -0.30532
LJ          0.214639        -1.16448          1.0445
LJ           5.38129        -2.05777        0.193778
LJ           3.21659        0.794335         -1.6333
LJ         -0.867294        -1.46656       -0.741089
LJ        -0.0189206       -0.621396       -0.133473
LJ          -3.65705         2.77526        0.703552
LJ          -1.85958         2.46365        -1.98351
LJ          -5.83002         4.17591       -0.390956
LJ          -2.79624       -0.195244       -0.353878
LJ          -2.15626        0.469569        0.210844
LJ          0.272914         3.35356       -0.611685
LJ          -1.38067         3.02104       -0.534259
LJ          0.489062         2.00533        0.152815
LJ          0.659022        0.282203       -0.142155
LJ          0.484434         4.56765         0.38469
LJ          0.409832        0.949563         1.43478
LJ           1.19872         3.44477       -0.344183
LJ          -1.82019        -1.60321        0.649104
LJ          -2.06221         -1.6508         1.75234
LJ          -2.62586      -0.0374533         3.43103
LJ          -2.95706        -4.06772         1.05477
LJ           1.35188         -4.6369          3.4751
LJ          -1.53137        -3.07862        0.880772
LJ          0.242221        -1.01379         3.66921
LJ          0.866492        -2.77212          1.6142
LJ          0.772991        -5.03217         1.78678
LJ           2.96293        -1.88871       -0.506585
LJ           1.66813        -2.80752        0.869351
LJ           1.73288        -3.94341         1.72534
LJ           -3.2592        -2.51755        0.382818
LJ          -4.10237        0.569702      0.00861814
LJ          -1.63866         1.23832          1.0799
LJ           -2.6036       -0.838865        0.632693
LJ           -3.1515        0.263827        0.758773
LJ         -0.625621       -0.855583          2.3381
LJ          -1.99139        -1.07697         2.80588
LJ           2.03821        -1.14127         4.93323
LJ          0.995492        -1.79672        0.167583
LJ           2.81837         1.60499       -0.769838
LJ            2.3763         1.99811         2.26763
LJ           1.56219       -0.181847       -0.281461
LJ          -3.12017         1.31771         0.44426
LJ          -2.27254         2.00794        0.614673
LJ          -1.64338      -0.0957687         4.21007
LJ          -1.52394          1.5376      -0.0857253
LJ         -0.184863         0.22126        0.780491
LJ          0.730831         3.25998        0.561064
LJ         -0.306566         1.54153         3.20611
LJ         -0.447673         0.30119          3.0971
LJ           2.48973         1.44822        0.927753
LJ           2.81069         0.50328            1.58
LJ           1.01728        0.537705         4.35685
LJ           3.28612        0.716908         3.10079
