108
#Comment!
LJ  -0.43969464719587226   0.46270587296884624   -0.34474505019702234
LJ  0.49595989046967814   0.075068545957846969   0.1907988555033254
LJ  0.42215695862335434   0.10495964869320966   0.45475101065619
LJ  0.40698897256163397   -0.19091879302557854   0.27945870806005407
LJ  0.41764095459479456   0.089962664593381966   0.21500381517516975
LJ  -0.44934836621105023   -0.46073283017350469   -0.36947166592221109
LJ  0.061164651421024327   -0.32751770540349556   -0.46030008997774186
LJ  -0.33022236031816304   -0.15054362210769517   0.17951341550760341
LJ  -0.19523890816044673   -0.080148132618365717   -0.22521663443513742
LJ  0.4650524151609739   -0.18316495590146986   -0.040881106269409662
LJ  -0.35462856590444719   -0.42272609719587018   0.39319156857033244
LJ  -0.022270482128741793   -0.18999639136075541   -0.2707105795209851
LJ  -0.32146584591546218   -0.0034509588320054125   -0.011950724232381053
LJ  0.05403901859061392   -0.10487183436538491   -0.40014680131394309
LJ  -0.27146908371774747   0.029905273884905863   0.43903488081992348
LJ  -0.1148433364944753   0.38158606177683152   -0.32669079218199815
LJ  -0.0041437229598020901   0.25479149960852865   0.46502712737659502
LJ  -0.34841155682232056   0.052601376420390207   -0.28694264371857342
LJ  -0.45377371598848221   0.20305591350891072   -0.058203564763567577
LJ  0.29239352540772084   0.17979143875968692   0.11869271409031988
LJ  0.36564553778364528   0.30262121617940668   -0.17338742765051127
LJ  0.0092063043304656533   -0.45229456810898316   0.0037453627163436111
LJ  -0.41034517367204215   0.19912513999107292   0.34931998231613959
LJ  0.47681579037886429   -0.36031061719530777   0.17249443894184593
LJ  0.053787418568871377   0.047528580164668821   0.4913731879304809
LJ  0.19611089808100049   0.21143660275757084   0.20194048880262766
LJ  0.24124237644147214   -0.49219332928375042   -0.011248423177753212
LJ  -0.031340425389591205   0.47282969451498069   -0.31711073102620396
LJ  -0.34917182142023578   0.37505144341754187   -0.48230451920573247
LJ  0.3976643003566192   0.16945063081461623   -0.25409915725877807
LJ  0.29263258866736502   0.06503499788679408   0.24245449613474745
LJ  0.14310417449455595   0.27732903989091429   0.10819349186539841
LJ  0.23849229709523384   -0.42460673360416162   -0.39615180050114318
LJ  0.24920750861351604   0.35575268719728642   -0.33592365402424157
LJ  0.32211139715554132   0.38847479510646621   -0.25487784302412347
LJ  -0.34258599340577345   -0.15434936395026239   -0.044274101540420337
LJ  -0.14676551033293261   -0.18848853063878893   -0.17128399461267987
LJ  0.32922651473609699   -0.48749716780394886   -0.079911135928052976
LJ  -0.30892683652165542   0.45252220046980907   -0.23533546641531505
LJ  0.093874012105300067   -0.2214418761406434   0.08153540775164908
LJ  0.49668005908874369   0.3180459141103511   -0.32913769631624051
LJ  0.22198683786088877   0.27553692082818787   0.25534046085199896
LJ  -0.39374579079906774   0.037055764458635412   0.32881441645453935
LJ  -0.075543484894937937   -0.12545319077372397   0.47079701678578356
LJ  0.35282032033519606   0.15710178525435975   -0.11727652950245709
LJ  -0.14280952415020781   -0.1654280104047833   0.11170878517842636
LJ  -0.46204508204644362   -0.18008124703073408   0.49660351882551773
LJ  -0.24506157295882955   -0.42240230422520969   0.34170105679382068
LJ  -0.18117173795195932   -0.25944861033435024   0.49148705152475936
LJ  0.48706488952343135   -0.090366502464320098   0.35682788638503343
LJ  -0.14736065785037139   0.12669359454506754   0.34682612051615413
LJ  0.061242903892935872   -0.17193174377976039   -0.30263803523801264
LJ  -0.08428033850776194   -0.27679929227922823   0.35984408950853525
LJ  -0.32931366006660628   0.30305671846413962   0.16303212110001661
LJ  0.31423240361930249   0.27476569043203003   0.27891071505626536
LJ  -0.34666927798651953   -0.25758231824981526   -0.1284799045041557
LJ  0.19887520350851989   -0.27899291303552465   0.49413596616714323
LJ  0.44995291199581805   -0.096177171927048388   0.12852248364489879
LJ  0.11556180794485751   0.22476757674534462   0.32828910060257616
LJ  -0.47999693085740341   0.32199920326326259   0.060580897232282958
LJ  0.18764273761101211   0.42467541841401341   0.11336239540312747
LJ  0.11740932897281207   0.0163650670938571   -0.43334006257599605
LJ  -0.12443600056784779   0.041163178151239696   0.39460421952864294
LJ  -0.3678545849871217   -0.1254770979739967   0.29073769311278663
LJ  0.19866776928722651   0.46099918902114168   0.19339182207103348
LJ  -0.051416301499107531   -0.055191073140562569   0.20998222781689149
LJ  0.3569514540689892   -0.24805976735646396   -0.15637474623096484
LJ  0.32537539835026913   0.014463302681479296   0.48601480171770733
LJ  0.13196616718354356   -0.06673192474637675   -0.36372540141096865
LJ  0.31743610244327924   0.093453240385829875   0.43384956940810887
LJ  0.1486423725649437   0.063421232943933731   -0.27811665306006794
LJ  -0.13856358277244585   -0.13431378663208199   0.34048179313579091
LJ  0.2966147510193442   -0.081318492620801111   -0.33576675865968725
LJ  -0.36254760075229653   0.49716830304146092   -0.17634123928674555
LJ  0.08958204642834551   -0.1412849479531533   -0.24129489765243009
LJ  -0.034059973607193039   0.39383886418861785   0.42296793595734805
LJ  -0.38731232063254423   -0.14794393075273365   -0.13161725562082935
LJ  0.38419590971803641   0.31871955635004146   0.40653835557331069
LJ  -0.0094138228865491679   -0.3636006926628807   0.45040345794542436
LJ  0.29181680421756934   -0.16474836363439188   -0.15198026834337011
LJ  -0.021372984929243069   -0.22484418176898435   -0.19262451122552932
LJ  -0.48126425842004183   0.080445329408413355   -0.34395732642710675
LJ  0.26757639240400249   0.27894150036060111   -0.18217911561659458
LJ  0.21814768459758271   0.18653717010706761   0.43392382905708854
LJ  0.33246582114698953   -0.13032583714460158   0.37945375028226885
LJ  0.20239805807722525   -0.021226250368594931   -0.45615385687193116
LJ  0.37095761536171745   -0.16010528790842696   -0.21415748897437106
LJ  0.036463632557237467   -0.1266610879810447   0.36515322886285512
LJ  0.34499095503503002   -0.47175308305152097   -0.23216261651246356
LJ  -0.16174664371024466   -0.2831775321642363   0.19962046252554672
LJ  0.12884823916321589   -0.033102665407225507   0.37330071194134162
LJ  0.39214263798109539   0.018924450091742796   0.20785882668058872
LJ  0.015404691654308515   -0.42269644254345762   0.25955128519781112
LJ  -0.44761239050669405   -0.18310981669345494   0.35139302207272199
LJ  0.47720107756747077   -0.31526785703965765   -0.18390019832428553
LJ  0.19586861778546222   0.30344158788049791   0.40423201827581273
LJ  -0.10372018557589653   0.44194950257150389   -0.084737622670918916
LJ  0.17541779047846176   -0.11723540260927866   -0.12258713244610697
LJ  -0.12297276307516145   0.36058675571465815   0.26310908400883437
LJ  0.24192481786809966   0.13494191914166881   0.027822099713049608
LJ  0.22177951369078511   -0.060144454848900644   -0.30023425704042639
LJ  0.24511973306185805   -0.28706483178175846   -0.095837701194009611
LJ  0.010177663228614882   0.13139553597026898   0.37720665864590103
LJ  0.20961746000631795   -0.37352932640034908   0.3527087694592696
LJ  0.0086983731924395163   0.41747501233636802   -0.24762509835859114
LJ  0.29860279170944143   -0.20286969070883346   0.31459069650350846
LJ  -0.49018930151156104   0.17098330511617929   0.4388879442359242
LJ  0.12408787365411472   0.12120272357766859   0.46231698399673837
