108
#Comment!
LJ  -0.43969117829995963   0.46290395283970676   -0.34479480654528072
LJ  0.49581573955878733   0.075195977870892064   0.19071652355270766
LJ  0.42209640930299192   0.10494435511078873   0.4546533842197556
LJ  0.40680266908676743   -0.19082322082969586   0.27947011608734129
LJ  0.41754699468166828   0.090093781414242943   0.21495035899863463
LJ  -0.44942277682705079   -0.4607574024827284   -0.36953008635437262
LJ  0.061094579590436696   -0.32784241700534877   -0.46040647501533816
LJ  -0.33011486789068878   -0.15061897726430207   0.179474914379049
LJ  -0.19521644902836571   -0.080097180113287189   -0.2250941979377708
LJ  0.46509126868895317   -0.1830894931314779   -0.040656094592735087
LJ  -0.35451596577960925   -0.42284715553632601   0.39320836310423429
LJ  -0.022267333771680373   -0.18999283628101077   -0.27066821335438812
LJ  -0.32147041757530281   -0.003563952133880108   -0.01189583637907381
LJ  0.053905233377152847   -0.10493891202320735   -0.40019261771698905
LJ  -0.27163823146970117   0.029980412791087815   0.43882466972660489
LJ  -0.11480736880244495   0.38171715040917481   -0.3267404741842142
LJ  -0.0039975353796048042   0.25475374969276993   0.46501512018122826
LJ  -0.34849713368139762   0.052546289668967287   -0.28706604891736481
LJ  -0.45384148967789517   0.20316885446786243   -0.058356680806108931
LJ  0.29268966389680595   0.17983522722373099   0.11866235455786554
LJ  0.36557512165539396   0.30246958733651402   -0.17350776811769675
LJ  0.0091057648779979961   -0.45232715406618457   0.0039705205779726541
LJ  -0.41023203456336255   0.19899210927978606   0.34903663484364383
LJ  0.47695614225753624   -0.36038075838299788   0.17269477690432458
LJ  0.053716961477392904   0.047557240785385944   0.4913313097209166
LJ  0.19602833887516907   0.21139637020974156   0.20192198039184647
LJ  0.24117166463144926   -0.49238686419206923   -0.011288810821385923
LJ  -0.031287865892161863   0.47292076944668576   -0.31705378496040476
LJ  -0.34911294738287885   0.3750150888863677   -0.48235566489820425
LJ  0.39777893448149154   0.16937056925846974   -0.25419660885733503
LJ  0.29248766699513778   0.064945833744954717   0.24237439064430807
LJ  0.14319110456670037   0.27728790210327742   0.1080199010493935
LJ  0.23862266366565366   -0.42466885319650771   -0.39622275620301128
LJ  0.24952038027366519   0.35576064268364466   -0.33587889464778531
LJ  0.32214227992376798   0.38854788455615558   -0.25511703792238327
LJ  -0.34243248772505591   -0.15448755320254942   -0.044239754668628124
LJ  -0.14669643184921097   -0.18847915131588333   -0.17128365908714463
LJ  0.32925648012360526   -0.48751022860463489   -0.079734450743052493
LJ  -0.30925548214102133   0.45254358516263171   -0.23524165978600606
LJ  0.093924804612193352   -0.22140144035850787   0.081557072200037731
LJ  0.49667551043454888   0.31816212098070906   -0.32924972806008956
LJ  0.22188988603977547   0.27557039743666378   0.25532020627431845
LJ  -0.39376861743397185   0.037033865979840819   0.32878489015331713
LJ  -0.075618744644577768   -0.12536462369454751   0.47100577199270099
LJ  0.35275609189019302   0.15714141966945955   -0.11727214193649813
LJ  -0.14272762314408133   -0.16539791169912077   0.11162350816542696
LJ  -0.4621022355831616   -0.17993542465141221   0.49647304329914682
LJ  -0.24509818143615136   -0.42246189358189046   0.34158264128399279
LJ  -0.18098851501515628   -0.25940220669726399   0.4916203718954445
LJ  0.48690765650414142   -0.090503420046410959   0.35683883512281539
LJ  -0.14727857179445808   0.12684030435310076   0.34658997006079367
LJ  0.061198528070828727   -0.17212212939987187   -0.30285259929942077
LJ  -0.084117105943304474   -0.27700251301479939   0.35981724114799174
LJ  -0.32914559365167889   0.3031382854042744   0.16318496266611601
LJ  0.31415582710198148   0.27475062724613997   0.27886793713982994
LJ  -0.34672778615762645   -0.25741931293093656   -0.1284060601199207
LJ  0.19882975191366364   -0.27909816731148496   0.49420264229975924
LJ  0.44993435050158903   -0.096143992569535611   0.12857937025152963
LJ  0.11561660214500884   0.22477996713700615   0.32828142503723856
LJ  -0.47977917775520362   0.32190207635128221   0.060553190284970186
LJ  0.18752729932888168   0.42459821186046215   0.11342114947421755
LJ  0.11729107257257214   0.016416835031272881   -0.43309177761759188
LJ  -0.12426739399751319   0.04104883343670105   0.39442653421308499
LJ  -0.36765143881044549   -0.12546618475621016   0.29073891544652347
LJ  0.19851724429654097   0.46084675054719826   0.19334561678458145
LJ  -0.051477609922514933   -0.055129298938885088   0.20989820675169343
LJ  0.35682907285558962   -0.2478014238320593   -0.15635205005542757
LJ  0.32532695357611069   0.014347590094319669   0.48598893411398858
LJ  0.13184782616844276   -0.066752714132895463   -0.36379358307212656
LJ  0.31730378639482398   0.093463471731992556   0.43387473104488206
LJ  0.14860335420875656   0.063291684285002342   -0.27806894137376142
LJ  -0.13854940288068357   -0.13426788274188947   0.34043804268251959
LJ  0.29643477116454886   -0.081366470849637218   -0.33557754227179998
LJ  -0.3626311006863146   0.49713602876799096   -0.17629375150829263
LJ  0.089547428315957828   -0.14096494062505108   -0.24117234679168317
LJ  -0.034192855522590465   0.39395183395589434   0.42309131406414668
LJ  -0.38723316734212243   -0.14784793253484169   -0.13163234030193752
LJ  0.38431555466747902   0.31874312172319968   0.40664330865145409
LJ  -0.0097169085872806996   -0.36377699605858377   0.45056175230962753
LJ  0.29202493877091046   -0.16465144770832205   -0.15173074488056362
LJ  -0.021341995650644992   -0.224687356608923   -0.19261455773070577
LJ  -0.48134479021762694   0.080356622317555512   -0.34406583432042337
LJ  0.26747581887657396   0.27896349814085525   -0.18201413653379561
LJ  0.21815759848867725   0.18646714278382368   0.43398331476964114
LJ  0.33242148392242915   -0.13026525885232038   0.37940950573680993
LJ  0.20250464035248339   -0.021360714121267874   -0.45623322224300594
LJ  0.3710789349033477   -0.16011749557517413   -0.21407241373830838
LJ  0.036418322826912368   -0.12661248870557162   0.36499190539658327
LJ  0.3449796109117319   -0.47164444939354078   -0.23204049726543452
LJ  -0.16177542779346343   -0.28316119958361102   0.1994218594367845
LJ  0.12871910788449531   -0.033146004404325045   0.37337522378147486
LJ  0.39212628089026047   0.018843027913828202   0.207984756653741
LJ  0.015483775070747628   -0.42254182030535287   0.25943432537413758
LJ  -0.44757173448740201   -0.18317775617153362   0.35147310073381183
LJ  0.47727398860756248   -0.3154236358625469   -0.18376356818240747
LJ  0.19586412400784733   0.30342002949360036   0.40436494505028103
LJ  -0.10394353026005847   0.44221755240291227   -0.084756325065644178
LJ  0.17542023020284206   -0.11738065495855363   -0.1223156284735215
LJ  -0.12292227441910432   0.36050665552993422   0.26310876826565427
LJ  0.24200120920950116   0.13491091237210273   0.027842417076200356
LJ  0.22184734080171198   -0.060095677791805788   -0.30028649235529803
LJ  0.2452285652608189   -0.28702276162676449   -0.095721475503805595
LJ  0.010110056901136557   0.13131594088605886   0.37710374487852333
LJ  0.20969151451733414   -0.37333637350377957   0.3526776709289281
LJ  0.0086465055616464434   0.41757159177942621   -0.24764965412447376
LJ  0.29885310194477654   -0.20276483117471883   0.31445983442182834
LJ  -0.48999364223335368   0.17096543023622457   0.43880471760802081
LJ  0.12410683787356838   0.12117975084945379   0.46247680249192491
