108
#Comment!
LJ  0.32683700734476184   0.43243240620726181   0.24283310501488561
LJ  0.40607703601138034   -0.04352250364236613   -0.25162587170047945
LJ  0.094556729725289446   -0.48863869481817734   0.39594753933712912
LJ  -0.46889481239431963   -0.40827521437311792   -0.46760570769593235
LJ  -0.49440255370378527   0.25449485205691857   0.026872364635225951
LJ  -0.047466790446214033   -0.30554456825304593   0.1754690241970237
LJ  -0.38446244428767362   -0.39976639035276379   -0.31112066647734304
LJ  -0.3552782657086711   0.10032241541404938   -0.065646827324636919
LJ  -0.48351411931257809   0.48122340922520718   -0.091968659309775644
LJ  -0.21681013739215285   -0.036221801749992011   0.46823554072972895
LJ  0.26446348244573892   -0.40693610448906437   0.068857358537229185
LJ  0.33050710342877071   0.042222586479723503   -0.4231875771942446
LJ  -0.11174014676035623   0.22840534611213978   0.471687659212771
LJ  0.41294213510680639   0.1487369248004172   -0.47372881606714295
LJ  -0.24992880351224689   -0.33902327408513105   0.46832653162143545
LJ  -0.19605690147628227   -0.22240381633333989   0.26891829049840243
LJ  -0.15982891885742606   -0.268511421660523   0.34594790089103844
LJ  0.18001475501927128   0.33946279585634287   0.027838937863964956
LJ  0.084563648543825615   0.44956817720550135   0.072719619643474037
LJ  -0.34621627264127469   -0.46284404510972998   0.061477505026855499
LJ  0.34554967540170067   0.36108051514525158   0.16116879367394582
LJ  -0.25127216887501852   0.42329991145363688   -0.044809424014644925
LJ  -0.021539274592760411   0.081864046160927281   0.073518917502270742
LJ  -0.15159667938478999   0.46273310536871054   0.20141314144310551
LJ  -0.32994713768406653   -0.061905656295728202   0.31298079988244099
LJ  0.10164480437686674   0.41467692892625962   -0.13774954332137249
LJ  0.45322131953988587   -0.09715748021541451   -0.17995531094771075
LJ  0.30667860023036547   -0.0051544307508945997   -0.23885561507995612
LJ  0.41318384125851548   -0.30121988968845681   0.26096154795284648
LJ  0.30477706630489337   -0.22575002316041573   0.26058568928855086
LJ  0.43864400022657468   0.35167304191690341   -0.30011541622770305
LJ  0.030107947106665481   0.43173795224642236   -0.10773884888155326
LJ  -0.0028338289075530822   -0.45226517272072592   -0.30526266005502917
LJ  0.3816931608678284   -0.10425528745920598   -0.36250777707255799
LJ  0.20549505947987953   0.19454997841957553   0.20844154267179005
LJ  -0.31582865065825277   0.49217629357939391   -0.4447377418063323
LJ  -0.48814581025040232   -0.28926922846680797   0.13065766668147141
LJ  0.3138897901340264   0.14416549217804689   0.068225646605941534
LJ  -0.43178663863908573   0.48560223924731621   0.092512479620685387
LJ  0.21328403620834718   -0.30609649960671387   -0.33361372141767864
LJ  0.44402519916097916   0.20227651458186541   0.18587408035795755
LJ  -0.11386959861753866   0.29363705882018498   0.25662103308666712
LJ  0.051141544001288522   0.077245456050530723   -0.13749982584773945
LJ  -0.4748328794977516   -0.13951503451711791   0.091815194071275238
LJ  0.065409065208829012   -0.19845233870734633   -0.35990006165671945
LJ  -0.42211386789437716   -0.25613041427852196   -0.23205084390814013
LJ  0.47906869982044492   -0.26615913050569023   -0.43483700367712969
LJ  0.2550672672226813   -0.3767681017648663   0.39185276687835574
LJ  0.12529215257982901   -0.39326530251784508   0.38542145487980328
LJ  0.49482181364072103   0.4729382742324636   -0.36133300240633998
LJ  -0.39527372377231862   -0.30183226298332672   0.007242874826510968
LJ  0.16018964911746883   -0.055669576701570793   0.21002283446568165
LJ  -0.28820862087618765   0.13784326296771973   -0.37210519759622707
LJ  0.25945649089601514   -0.15562619260977498   -0.1080371049279512
LJ  0.25149501213523062   0.01720229807852371   0.0068927122861014364
LJ  -0.21154511243805968   0.38016302512642136   -0.45836156070126322
LJ  -0.38493918837587504   -0.46271736328906476   0.23374717453242136
LJ  0.41954940142362718   0.18411491468387139   -0.35770023402484874
LJ  0.44798652819091728   -0.11248222636771797   0.053036366926030816
LJ  0.48552176424367471   -0.0091167646874830439   0.25580465449376855
LJ  0.17967846278513738   -0.089279456127228513   0.052401959262579068
LJ  0.40867847402295915   0.13697324557125098   -0.18656859673431303
LJ  -0.46634162687132891   -0.07293093247052812   -0.028250104345273915
LJ  -0.18503990291419117   0.055568760597358241   -0.43584587536307734
LJ  -0.092337686576318717   0.084713916759877508   -0.49725680792174876
LJ  0.20454008266673443   -0.06577462182189682   -0.12501771567655756
LJ  -0.26043200681412954   0.32901150148950498   -0.14506941859635639
LJ  0.22733624922280365   0.094595045605721198   0.064524476820671667
LJ  0.40977427562071678   -0.16188590305282982   0.24348862496029902
LJ  -0.11728330830279288   -0.12597064831775401   -0.43040176102799566
LJ  0.4178525994500491   0.027690302934507836   -0.49937027651467625
LJ  -0.33867498726630318   -0.30856068059321551   0.14573239037970304
LJ  0.39947362696307992   -0.073497712117501959   0.25689643637325643
LJ  -0.010573798136465177   0.29596752784334374   -0.48632123880650674
LJ  0.4539160108149996   0.11182843392170289   -0.049523035737118866
LJ  -0.49031345347141037   0.07764991172269893   0.079355723638207143
LJ  0.15419041065928363   0.15093086416609924   -0.20147333650283059
LJ  -0.308862869593718   0.070970952008805599   0.055099350542271899
LJ  0.18776930717261592   0.21093650992970051   -0.23889841063526246
LJ  0.34371038267727816   0.10565398352061238   -0.37135657605338002
LJ  -0.10326875894663291   0.446206906891565   -0.20382796707016007
LJ  0.13898852009657678   -0.46115477953167577   -0.4796393257456662
LJ  -0.077895454928608873   -0.14889336710594592   -0.12844173700374917
LJ  -0.186627677981062   0.27640929521556507   0.42384856926533016
LJ  0.16335413127410536   0.2859707053055569   0.4090327840087663
LJ  0.4985141237652978   -0.44614871945561596   -0.15293598133363681
LJ  -0.095749859735915224   0.076837914754328412   -0.32787654711417302
LJ  0.11315802825780627   0.042073971202648483   -0.21902277060679864
LJ  -0.23787151406599771   0.44880157949225591   0.23093605287427271
LJ  0.014619830534641623   -0.37055559819836831   0.28766087704534238
LJ  -0.36813415975789193   -0.24160702095846431   0.44912630653887203
LJ  -0.19020912369951942   0.38752412533242009   -0.38742669648462918
LJ  -0.48623806200018022   0.20369798539267989   -0.37577754043749323
LJ  -0.28875669139884774   0.10086236937455852   0.13687971357224793
LJ  -0.48441965157443845   -0.023089606720047461   0.36781986812183465
LJ  -0.33630856745091059   -0.038907131105906982   0.12233667587160942
LJ  0.30003085236989691   -0.02182665383134166   0.42509361887826191
LJ  -0.15134420857057879   -0.21994097646457386   -0.067217774723205156
LJ  0.29850044496464473   -0.11515976715639455   0.43371717557346345
LJ  -0.26966029917673401   -0.047805549459817576   -0.40123929181777268
LJ  -0.41406546953601553   0.2384901641776753   0.081180738857883017
LJ  0.01930912222838457   -0.3540895203277627   0.35848046989208582
LJ  -0.057355850098112164   -0.42776794062367052   0.33193197588351492
LJ  0.21149037776641885   -0.0002894419688058863   -0.47111892128733546
LJ  0.10397269070997693   -0.28913763587395602   0.10336507859316983
LJ  0.36747126753316167   0.4727074148720013   -0.16580922071944745
LJ  -0.053067777691834891   0.01512680600922214   -0.29184575400535517
LJ  -0.29431894446775081   0.22372045884002698   -0.27324991467191856
