108
#Comment!
LJ  0.32751732373424841   0.43371782558911293   0.24122293124649349
LJ  0.40882220052687601   -0.04687240314663052   -0.25874870700277264
LJ  0.095921076664013949   -0.48784722464477093   0.39574764371196564
LJ  -0.46657452561638724   -0.4069009037210628   -0.47012728282383076
LJ  -0.4947248043600399   0.25500635061116828   0.024046686508255859
LJ  -0.049097434612993179   -0.30537319136423219   0.17821372041448902
LJ  -0.38746929756614562   -0.39677102489113075   -0.31149661155272546
LJ  -0.35946262202389428   0.1019487315238016   -0.06532266869964598
LJ  -0.48321195936037209   0.47716965318673243   -0.094137871954093094
LJ  -0.2212316686488067   -0.034843377870160598   0.47202013032867685
LJ  0.26519292985989806   -0.41035593775649787   0.070339089103627392
LJ  0.33130429770633346   0.040420114746150357   -0.42247923833149215
LJ  -0.11062091740622562   0.22975595811472443   0.47000190982771289
LJ  0.41347499932237552   0.15299556843379694   -0.47346280964331872
LJ  -0.24720477408277916   -0.33978991130062319   0.47158412772575031
LJ  -0.1935714533415713   -0.22275883236944596   0.26956621810333986
LJ  -0.16175948534286935   -0.2676160915718202   0.34669666551981304
LJ  0.18091998976550636   0.33899047091750606   0.026062211155018913
LJ  0.085316193958663994   0.45333679229368851   0.071865029697733382
LJ  -0.3462449296094115   -0.46087333043592305   0.060150891290089527
LJ  0.34689951312509298   0.36214927898068555   0.16284155647188667
LJ  -0.25378281244776868   0.4284492887437365   -0.04457438637303867
LJ  -0.017967814442130883   0.079938302389151866   0.076701636914506682
LJ  -0.15212057715640687   0.46095733255753829   0.20049952387703132
LJ  -0.33030542694018211   -0.06045729802951106   0.3114609661449545
LJ  0.10329615593855269   0.41618430789844135   -0.1398402900496839
LJ  0.45427397376604978   -0.099513136435236724   -0.18246640667014247
LJ  0.30791918110700317   -0.0053946420905988729   -0.24045862896485917
LJ  0.41198139323368049   -0.3048657725305704   0.25988479464392267
LJ  0.30234675325145305   -0.22447777405588784   0.25684533624004247
LJ  0.44030621284407284   0.35275373744165867   -0.30328797592208728
LJ  0.028230016991368425   0.4316699964700807   -0.10394996475066882
LJ  -0.007565716713584779   -0.45141707062559749   -0.30805756715966687
LJ  0.38584081328086739   -0.10261978531870088   -0.36042653312056622
LJ  0.20900641932757688   0.19563458706941864   0.20952869087357273
LJ  -0.31667097212908912   0.49316810463920296   -0.44339688692331281
LJ  -0.4912623551493378   -0.28672609256900633   0.12895734222826663
LJ  0.3170466878366261   0.14387675249724108   0.069893308112444985
LJ  -0.43317884517928229   0.48460249662689536   0.090299702948619776
LJ  0.21747748706676631   -0.30504535762226886   -0.33213249149490104
LJ  0.44195002672003808   0.20565439621451037   0.18565132832228287
LJ  -0.11533784530531178   0.29662781877953581   0.26001790929221885
LJ  0.051058534144371205   0.079462772474983914   -0.13612859521044404
LJ  -0.47543909283770508   -0.14439219833806477   0.089448307288813408
LJ  0.0657325115106209   -0.19680142011434784   -0.36209644033781579
LJ  -0.4217685369585813   -0.25504684425880741   -0.2311991012685142
LJ  0.47924158216522361   -0.26647819354042079   -0.43621674679660755
LJ  0.2571545359792522   -0.37858940857017609   0.39254359840202052
LJ  0.1246659907427338   -0.39264750217495525   0.38504460042311295
LJ  0.49723745623433052   0.47504699367686126   -0.3595867392810973
LJ  -0.39405970655350842   -0.30018551707052976   0.0045301740777135358
LJ  0.1590637203129803   -0.053315807612941454   0.20462456664557191
LJ  -0.2887975473343512   0.13762863476442247   -0.37381798203212391
LJ  0.2595744553478882   -0.15332709898053784   -0.10574844342291209
LJ  0.25411691700573075   0.019750401004758927   0.010651483534682238
LJ  -0.21413703938774309   0.37998732084073455   -0.46059584342030896
LJ  -0.38843808621092163   -0.4636509663774398   0.23561881681337174
LJ  0.42055917681493071   0.18515032159714898   -0.3570064519433957
LJ  0.448482209688155   -0.1117380389461174   0.053399568712399169
LJ  0.48771776082038437   -0.013108743952558377   0.25559703863192496
LJ  0.17948536694091385   -0.086465053573799966   0.050811528380792975
LJ  0.41224158169733605   0.13313836890087907   -0.18392802080725631
LJ  -0.46344619816832577   -0.077728774440238471   -0.027971504668609676
LJ  -0.18530950176526778   0.05241012347316247   -0.43402720589263422
LJ  -0.089749418948305099   0.082223253519514664   -0.49552323589979363
LJ  0.20832061074872912   -0.066947920921038212   -0.12623762286852036
LJ  -0.26271335848906752   0.33294013729248317   -0.14204901729266636
LJ  0.22873411174211172   0.096222287895525727   0.0678695606011359
LJ  0.41214957594699941   -0.1621993413077743   0.24285193598219429
LJ  -0.12034970678423888   -0.12441382136582191   -0.43426289531182843
LJ  0.41737969647595669   0.028391243100169609   -0.49950196160771904
LJ  -0.34240790008540606   -0.3073878462475651   0.14787156831536688
LJ  0.40150222105852956   -0.075535580266852503   0.25687909033895062
LJ  -0.012677836371320155   0.29790462618066155   -0.48639257557066495
LJ  0.45359795969850331   0.11428722865745167   -0.048990746307977479
LJ  -0.49010993423859517   0.077722293317625077   0.078674587735029444
LJ  0.15056071016322697   0.15386230908320811   -0.20133034763187041
LJ  -0.31237558899370277   0.064497516593212081   0.056907150518681497
LJ  0.18453106056439164   0.21038547657303233   -0.23678026852525208
LJ  0.34309815771326846   0.10300878079825468   -0.3708914498465391
LJ  -0.10589061819092534   0.44581078362112359   -0.20501895857040567
LJ  0.13534798600208414   -0.46346587893651819   -0.47431651893010895
LJ  -0.079444946309180781   -0.14851745280466302   -0.12448918198598796
LJ  -0.1843194017243435   0.27503569225300817   0.42694578835438812
LJ  0.16747048761092989   0.28707419548846036   0.4049212104252467
LJ  0.49694260140811514   -0.44857997235672864   -0.14903549107519634
LJ  -0.098677181216002038   0.07670655050586167   -0.32855025591561587
LJ  0.11706773266956413   0.041399092447301528   -0.2189529111492779
LJ  -0.23847868175636766   0.44860374991683333   0.23356969864932067
LJ  0.014002638809467173   -0.37568122645737279   0.28420777860152702
LJ  -0.36477086345570647   -0.24364268910617701   0.45105310232664292
LJ  -0.19336668804799731   0.38798727472992822   -0.38759995680811471
LJ  -0.48680087506031472   0.20505769436156274   -0.37549949524687382
LJ  -0.28877020978114742   0.10004715592173451   0.13553301825337788
LJ  -0.48353613611194862   -0.023235795873491845   0.3631585049477194
LJ  -0.33465004861632902   -0.038411377651513132   0.12077087599484873
LJ  0.30061088145696813   -0.022135502881712819   0.42492877419410963
LJ  -0.15063153668568213   -0.22052750115218478   -0.064565901525929378
LJ  0.29524331957594524   -0.11509932149654914   0.43251723944386505
LJ  -0.27392505857030514   -0.049177890189690675   -0.4024542166149061
LJ  -0.4128463693836561   0.24189221918247975   0.083843895785966377
LJ  0.018667985667801899   -0.35646268686637655   0.36319186294144368
LJ  -0.056808384095223215   -0.42870775452890875   0.33324549150536537
LJ  0.20972703167317513   0.0035661667571066933   -0.47432398666315062
LJ  0.10906370302026161   -0.29292211302500237   0.10191401558507858
LJ  0.36801083362834452   0.47158719959260581   -0.16386672018883849
LJ  -0.052257347252398272   0.012822970586192924   -0.29362168728328908
LJ  -0.29708471427218197   0.22042769893150749   -0.27627938476077379
