108
#Comment!
LJ  0.48989923724747975   -0.22691546338175478   -0.38810392665851173
LJ  -0.2136258259427469   -0.39617137805390784   0.18940927126410609
LJ  0.49558219042213486   -0.34070396353378313   0.29078505127437032
LJ  0.48198645534337808   -0.42059529244348254   -0.1927491347294624
LJ  0.21185127037772869   -0.49283208233719139   -0.49603056015996944
LJ  -0.10823460497769834   -0.33329510406326834   -0.23342309836502989
LJ  -0.16398127332950821   0.28739912956151997   -0.36183682325685651
LJ  -0.10464641613406057   -0.21198806056569575   -0.34966977831411539
LJ  0.17850193504418996   -0.12566840929132386   0.49972084143650392
LJ  0.32407920660325473   -0.14190143471292435   -0.46580454886777373
LJ  0.16712366383180777   -0.32571019831309828   0.49903275859942353
LJ  0.34708052927815441   0.22685688593248748   -0.45322309466638017
LJ  0.41124783457003922   -0.15685963348680845   0.4738968144810301
LJ  0.4689520241887627   -0.19834154757069858   0.41017984621787118
LJ  -0.2782633975035107   -0.08203321165888168   -0.20374725000387026
LJ  0.29384503186099864   -0.15268969363867352   -0.34399077159404884
LJ  -0.36643636432457644   -0.23683751672720604   -0.45271559000237072
LJ  0.37778950989467275   0.00076037618170363142   0.49658349923487533
LJ  -0.20536420506771347   -0.017176565162143869   -0.44402703719364084
LJ  -0.26581948387246845   -0.17621424377830425   -0.44765963530858655
LJ  0.15920815600396018   -0.15152909764281022   0.31410921789085972
LJ  0.36256689147421178   0.15716103388894129   -0.29837134795658354
LJ  -0.45264146176746839   0.014553171663498832   -0.35524003402615134
LJ  0.045765483030084188   -0.077283170739006896   -0.31989228965415095
LJ  0.40147378817388457   -0.029382859755756358   0.32454029749808516
LJ  -0.32826302724781775   0.33453629403429813   -0.11832851504157171
LJ  0.42724546102099992   0.38751596126121435   -0.085383496456656702
LJ  -0.16583094390907713   0.16071588022918362   0.48042175790984654
LJ  -0.13275684513698999   0.26064660400075179   0.24297969864812657
LJ  -0.27534629406906452   0.20855480569395846   0.49692607840775277
LJ  -0.18732349692205971   -0.39897556961795638   -0.42351348016799845
LJ  -0.15841431134931347   0.2964340534000432   -0.19551428587127032
LJ  0.051123642487210387   -0.10230876173533925   0.48961041422373791
LJ  -0.28766497820598647   0.33292136898473929   0.49969002467656115
LJ  0.045451161970854297   0.47155635776410121   -0.1998576619860879
LJ  0.33972985711270837   0.15198950029833377   0.40774195656038759
LJ  0.48897322406812432   0.4981058315463664   0.20882545044529263
LJ  -0.31114794558564818   -0.3512882736975162   0.43448263830878758
LJ  0.24566104016098284   -0.31586947289605949   0.10688622978784705
LJ  -0.026857638409686222   0.45147677469768477   -0.0068586516956037511
LJ  -0.28503010155767283   0.34666132251547105   -0.05402721144134541
LJ  0.037617031832841923   -0.32413838777021342   0.12871870815722303
LJ  -0.27843828737163356   -0.45275643106083957   0.16353003875909994
LJ  0.12517522640184953   -0.49007785972472306   -0.26769215559670312
LJ  0.27907330385588597   -0.49882601597645865   -0.42895074160392788
LJ  0.14019495312195349   -0.41983982561084715   -0.10499429019495858
LJ  0.16897749502458198   0.38310299861791397   0.13225448617276947
LJ  -0.3997587087068995   0.48210863598334636   -0.15717945410447887
LJ  -0.46147319802551767   -0.08368611769332461   0.10814433534052821
LJ  -0.13148001947036875   -0.16672286327490266   -0.19834058327773543
LJ  -0.40297537275004297   0.28618941596561226   0.018832192774695278
LJ  0.40439972127568419   -0.2639385379031054   0.013479230322320682
LJ  -0.16985544641625383   0.4502442168943277   -0.16458343146844182
LJ  -0.0039145933776235115   -0.16244903249488246   -0.17363606640084178
LJ  -0.15662223281566889   0.014541956051271081   0.11445669855783432
LJ  -0.097785974156777727   -0.18131462489310785   0.29604536123540465
LJ  0.17113082883910113   0.21311392377992169   -0.1626832242300715
LJ  0.32599965504921286   -0.38084789776818551   -0.16158192535018009
LJ  0.16847761065600161   -0.34046568876829719   0.04576227454345845
LJ  0.32899194162689566   0.2139986854904955   -0.0050108676261940007
LJ  0.49241966303731538   0.15685541888263255   0.45117804195722205
LJ  -0.33468346009271888   0.23361500525063042   0.11973928938983158
LJ  0.47818800230682035   0.36211235524196589   0.27396480922334793
LJ  -0.32853428111911848   0.17183465755951843   -0.38095368491119541
LJ  -0.16393522688715581   0.16151414277724757   0.2112648588164186
LJ  0.0055456804395494427   0.32566436846980557   0.45946788852427539
LJ  0.091946032082580592   0.4085242573486263   0.083715062594900552
LJ  -0.0008079629114086151   0.44106309164546753   -0.1441872698204627
LJ  -0.45580479023658194   0.17296405345328567   -0.1606937011126138
LJ  0.22185615231672948   0.33383099443034614   0.10568666829566575
LJ  0.44662306093379495   0.43003263913368595   0.014356040150536601
LJ  -0.045094674295173401   0.17228307155335662   -0.0019243173315282788
LJ  -0.493269216022999   -0.21777262509243595   0.27084791415231685
LJ  -0.33011066801548977   0.3877830713345245   0.26155109135891186
LJ  -0.38961058465440263   -0.33783015057243587   0.063053851052588969
LJ  0.28740171968882283   -0.49222036136953412   0.33156830109086882
LJ  -0.16789855547793311   0.38373665610413527   0.15996429993603928
LJ  0.070355897763169875   -0.38933560991999572   -0.094479581195460474
LJ  -0.2669923456237982   0.48840659105956546   -0.41543372267893902
LJ  -0.011709319435123933   0.35021990117679791   0.28834744475525198
LJ  0.42867811056196098   -0.4791609489753425   0.076394503975254616
LJ  0.32804169384047832   -0.35937433036305277   -0.49073343289654031
LJ  0.17466918514803381   0.39419175594330252   0.21604044360433089
LJ  0.33372893210818755   0.22410046947520598   0.44996270362340263
LJ  -0.41613018726041501   -0.17256900716289714   -0.10096544825386718
LJ  0.28589452878222721   -0.0041976464267923378   0.16702625292981657
LJ  -0.22878311070310786   0.10934008711976705   0.41366159084929977
LJ  -0.14464794893899255   -0.12709646212322429   0.3330218319156516
LJ  -0.082450173578406546   -0.10468112402605931   0.067331035475294634
LJ  0.022032971336418891   0.19200963190139067   0.12466773989773501
LJ  -0.11120403246815137   -0.30723028679483905   0.3539017768316538
LJ  0.0031141789037829643   0.21286580815085426   0.33724649017554609
LJ  0.1493024879144528   -0.27776335391623008   0.14575584848145381
LJ  0.063502890229751738   0.11264853078314713   0.17482815634415891
LJ  0.14772429958310415   -0.22779649860414955   0.37138422436680363
LJ  0.31972008464174406   -0.28192459722051683   0.34309879205769683
LJ  0.42854733469796258   0.44184249897331018   0.17457789547068578
LJ  -0.24095681186006151   0.35207382197496745   0.4480229300902755
LJ  0.46636372939505782   0.31615939318625536   0.08718240376399515
LJ  0.39582244479149892   0.20824716903846613   0.41175880615045302
LJ  0.49235529646943993   0.12728031402431672   0.16249265264626406
LJ  0.36297977411308319   0.32284861614956051   0.16494744507518933
LJ  -0.27082277439393682   -0.41737132898509133   0.31303690585793664
LJ  0.27125827518887086   0.15813983848237884   0.33531785263021485
LJ  0.18090761760344692   0.065445129599274704   0.1818924965475914
LJ  0.35241533949575032   -0.29911994372602269   0.1860942784716578
LJ  0.17861086066493814   -0.4284845927189927   0.27540600689591138
LJ  0.45821696647905802   0.3027846310814904   0.20719032333109247
