108
#Comment!
LJ  -0.49420951704716692   0.34187479956670447   -0.36701224971991991
LJ  -0.44793232085587453   -0.16056400027175166   0.41498125681921544
LJ  0.49899595623208348   -0.46118308005952091   -0.28581473921574069
LJ  -0.42648967513829222   -0.40128961400411667   -0.46681921354857459
LJ  -0.036397516003040066   -0.40873817080068325   -0.49907530391637778
LJ  -0.022863961102884234   -0.47360829490275852   0.31118225812885469
LJ  -0.19621932337980635   -0.31850908762864072   -0.34223398290994633
LJ  -0.00084555146261985231   0.32512777605322357   -0.28894687358387744
LJ  0.31603530596991458   0.38842047989424672   0.47379823799203868
LJ  0.30747587000314802   -0.18446005809208074   0.45465041825577918
LJ  0.20253430200747041   -0.22331480739500331   -0.38914957782113463
LJ  0.34754958392347973   -0.45892376610086094   -0.40359762641569452
LJ  0.46434706632495354   -0.2718970073550705   -0.35477491398449079
LJ  -0.33294505973141586   -0.0095349243606744176   0.46375407745990832
LJ  -0.39610833441325766   0.17574193374909849   -0.14831271800635168
LJ  -0.20449305244297022   -0.099898225188074757   -0.42328200401409261
LJ  -0.087246873485665274   0.074767191633036106   -0.47237117740744794
LJ  0.11916375300928474   -0.12610532014485654   0.32082281688975733
LJ  0.018453973743465468   -0.22400395182105234   -0.2807027211975433
LJ  0.15236417074333655   -0.3280264246367614   -0.079512751133208728
LJ  0.21537340013019987   0.012145511719415504   0.43040659873668852
LJ  0.43577341143500586   0.0045418947629710269   0.4904120984666297
LJ  0.37357235788354459   -0.10144795040004907   -0.3514750637491551
LJ  0.30962198396622215   -0.32596956144246797   -0.22263989711455082
LJ  -0.4201472063609446   0.18797359188377721   0.46591078083008491
LJ  -0.23618632064096937   -0.46607592096075651   0.476849707979148
LJ  -0.38693054827573914   0.38397002285065596   -0.16587632802640367
LJ  -0.3024726511753687   0.25522734174586842   -0.37992989900086227
LJ  -0.43617310088800249   0.24076598872870478   0.2170195504720844
LJ  -0.13147790492942768   0.37824677846890903   -0.4386370213873611
LJ  -0.3013937826796767   0.48227036128165507   -0.34515318015490631
LJ  -0.0035871942368593591   0.13807604473298513   -0.24698440264108587
LJ  0.23486863615735579   0.078577112903995605   -0.29533241036133973
LJ  0.4523398845895093   0.13352688535275967   -0.32027385965270377
LJ  0.27788219914769924   0.28511773810688956   -0.34330906024377911
LJ  0.37641672662011394   0.39602202594408337   -0.19873839530044718
LJ  0.27585489399532281   0.48913020393054257   0.0029522683560839614
LJ  -0.38948781115330583   -0.20146255588701298   -0.20616721227213061
LJ  0.35880701633541534   -0.34797809532976942   0.10440574149027174
LJ  -0.29750545873069428   -0.46855778234944923   0.015635436005864051
LJ  -0.16487785282059247   -0.37273638698184558   -0.14771221242848376
LJ  -0.04220772308866387   -0.46433772213206503   -0.29127619653493614
LJ  -0.36345639174070787   -0.3945734817694363   -0.16125613096730071
LJ  0.003695029885984579   -0.40821852529827135   0.066777949670998288
LJ  -0.1336000182755995   0.4046863289136679   -0.053268827327381606
LJ  0.45285031357233707   -0.2547911592634351   -0.077509463184039715
LJ  0.14473449160167379   -0.2285437375611942   0.11040063267962084
LJ  0.47615986811545885   -0.45295104413133269   -0.046316389310938559
LJ  -0.41172561311261957   -0.052909113643251349   -0.35999276791161117
LJ  -0.23131188874684838   0.0661660765427554   -0.30313240650802209
LJ  -0.33839589584700086   -0.013555576679547043   -0.15801808820348476
LJ  -0.15248741496682586   -0.13228801444944935   -0.19540061913433324
LJ  -0.013555408362480308   -0.19090412816513827   -0.49414546849708219
LJ  0.084880165689181844   -0.036541195468050368   -0.41422903577392556
LJ  -0.23316389329830392   -0.016175218718934889   0.066847546517133996
LJ  -0.21741354707658472   -0.21342752551060518   0.0026649124644041772
LJ  0.15166891115693801   -0.46592617400177938   -0.25370018778239711
LJ  0.38455610441498544   0.20106395657284692   -0.12783531605462098
LJ  0.024405853544456513   -0.17862662060071122   -0.058635319645380449
LJ  0.40798849723898417   -0.0089511764114749894   -0.14773778714871216
LJ  0.47543101035128799   0.35429698191955528   0.017210773894682757
LJ  -0.18690809774716005   0.25512715615436332   -0.22592911596883433
LJ  0.16358483292866779   0.38906618804244608   0.16567416897932657
LJ  -0.49250701630273935   0.08729288199193469   0.0046363599032042454
LJ  -0.17487316353305624   0.098075090755566835   -0.10048256863486786
LJ  0.042764510305473326   0.23219515976137223   -0.045087673367467718
LJ  -0.069808033116118648   0.1141241280760486   0.10061490930065849
LJ  0.017990124997192557   0.0057705645170860152   -0.076029475014488548
LJ  0.20424907514873253   0.26725752557500904   -0.15861312267821881
LJ  0.17595259291765167   -0.4185772848008571   0.20534760345966269
LJ  -0.11036864815773779   0.35948300492649971   0.1432196279937332
LJ  0.076724941150544942   0.46082297367485653   -0.070849818014468394
LJ  -0.43129339046024256   0.46909348758534286   0.17700200528439536
LJ  -0.21442952010235752   -0.41779948799780292   0.18434891508298215
LJ  -0.3570061147922991   -0.40214080702061122   0.31094061330691636
LJ  -0.46139481612549793   0.42539650618918579   0.4207288922337919
LJ  -0.257224442638746   0.38727691668772041   0.27746842295180241
LJ  -0.06800023265341755   -0.27894567647243546   0.21498014825949713
LJ  -0.17746638610314056   -0.27743652281840797   0.40642454143135454
LJ  0.12197375691709386   0.42202225895764128   -0.44132164888370257
LJ  0.16627258367878117   -0.33195896725309515   0.45148413265997284
LJ  0.42621897875896386   -0.32857946244590602   0.39875902323285994
LJ  0.28085829115194416   -0.2450959005145511   0.26737545611684316
LJ  0.35152725326590828   -0.46276931858878123   0.28337644468078738
LJ  0.31308230675773779   -0.14356251532446304   0.036004630455319639
LJ  -0.41704889662843847   -0.12713456575699522   0.018427995146232935
LJ  -0.37017376436518923   -0.063341967326026219   0.22421022922496364
LJ  0.4496238582390194   -0.1664233713218109   0.18559737196351769
LJ  -0.41300310395071649   -0.34586074437671427   0.12320813435921389
LJ  -0.25376222922974828   -0.20625704261692523   0.24125011522655429
LJ  -0.083682256891260881   -0.070999921045653919   0.36485728706451009
LJ  0.14592929607783114   0.012403815005777027   0.15723522733728776
LJ  0.19215451107144882   -0.13047664619761593   -0.18067083913118817
LJ  0.20526545010300068   0.051397915115401628   -0.045541149201638625
LJ  0.25630656295841414   0.15748141612147409   0.29084238515731203
LJ  0.35135652078049029   0.032304616825428442   0.14447492735157161
LJ  0.29936358520714779   0.22397072720113317   0.042304138164415778
LJ  -0.33562961828105736   0.28012812623801359   0.021701021068548688
LJ  0.37440642613260883   0.34315494282918563   0.20567816233696709
LJ  -0.23491044667374578   0.079086116625463984   0.26809257810273479
LJ  -0.087392691014786361   -0.082774577217169507   0.17309976670001517
LJ  -0.061780393555342303   0.31042734992083088   0.34145258595243255
LJ  0.014924813345792856   0.12740080253350589   0.3148126847964281
LJ  0.071953270197165173   0.21617822818116258   -0.4315193791360144
LJ  0.10569405791158254   0.20154422115742915   0.1405819345848105
LJ  0.14452689295594304   0.37751287648142623   0.36565013713773931
LJ  0.34705755799960902   0.18803899747276709   0.48570972133745999
LJ  0.46840928500600798   0.075369157166266812   0.31807822778605915
