108
#Comment!
LJ  0.48989336385249016   -0.22671695836963601   -0.38811062863951423
LJ  -0.21363833850427907   -0.39630401005044291   0.18920316671867388
LJ  0.49557596113582236   -0.34070190635319686   0.29059681653814629
LJ  0.4818997359763314   -0.42052160971559421   -0.19268914675737503
LJ  0.21205246914878151   -0.4928251573578098   -0.49601655285996898
LJ  -0.1082246317434032   -0.33328668028555231   -0.23323365273183877
LJ  -0.1639801373162047   0.28721140126915179   -0.36187086502074567
LJ  -0.10484721556810203   -0.21198272118533065   -0.34969237186959595
LJ  0.17851223287813817   -0.12548693161078484   0.49971974382850481
LJ  0.32408303716002035   -0.14166088288960543   -0.46574792947305022
LJ  0.16712619550638927   -0.32570118521826674   0.49882407478461516
LJ  0.34709463776322214   0.22665711893306989   -0.45320891169794947
LJ  0.41107248162543375   -0.1569360965217711   0.4738343416907157
LJ  0.46884274482054622   -0.19843316822884161   0.41007612618623634
LJ  -0.2781231042664381   -0.082060889917971377   -0.20356023175672136
LJ  0.29366341612413732   -0.15267829569526822   -0.34401252161382628
LJ  -0.3665232357840727   -0.23680363531366111   -0.45266203044852887
LJ  0.37797970011623772   0.00076051612839924841   0.49657900881544198
LJ  -0.2054027576664228   -0.017195930230826849   -0.44421236481787568
LJ  -0.26602000130727355   -0.17622727105395783   -0.44765844107561431
LJ  0.15941063884927581   -0.15153403585607819   0.31409238965607605
LJ  0.36251846336023513   0.15726156537294653   -0.29821996613159046
LJ  -0.45245438795195442   0.01457869376199602   -0.35526987803408383
LJ  0.045759869200979381   -0.077108076485089119   -0.31986907345584803
LJ  0.40137842901822979   -0.029500889244238392   0.32448383647729445
LJ  -0.3282625898084594   0.33454089722537556   -0.11813520870197286
LJ  0.42715171758007686   0.38744938946675278   -0.085387473445055165
LJ  -0.16574703279564162   0.16083125372698873   0.4802695995117906
LJ  -0.13271278988951091   0.26060765259780289   0.24279990017878
LJ  -0.27552664504927615   0.20850931627664282   0.49692640777355523
LJ  -0.18738391506678517   -0.39879191761693722   -0.42348995479583756
LJ  -0.15860797728374257   0.29645717736751526   -0.19548468419719653
LJ  0.051129595884799491   -0.10250550847925544   0.48960260790527621
LJ  -0.2875941417053996   0.33286545764605835   0.49982308339622594
LJ  0.045396464314969832   0.47168831799558625   -0.19981666284810842
LJ  0.33956556348295908   0.15181381957573545   0.40774962928790304
LJ  0.48894362763747268   0.49808579337318043   0.20900285530333568
LJ  -0.31111340586344477   -0.35131636845766395   0.43427275731917031
LJ  0.24551990011088612   -0.31582273343893191   0.10691362550209552
LJ  -0.026792528469711609   0.45138071265014146   -0.0068748960493188105
LJ  -0.285031369371049   0.34646596847070504   -0.054031101196927132
LJ  0.037519400768125724   -0.32412180505199756   0.128940750078918
LJ  -0.27842322697551797   -0.45275030458011506   0.16374438740568201
LJ  0.12522677190699952   -0.49002897084282171   -0.2678961084963325
LJ  0.27905980007984638   -0.49882278051473949   -0.42915110252081706
LJ  0.14019672559806146   -0.42000588185159304   -0.10509989292838202
LJ  0.16881438336560298   0.38304299399304237   0.13230285725303265
LJ  -0.39958451495617875   0.48208384806904325   -0.15726180475646223
LJ  -0.46142043012165745   -0.083520583831198258   0.10813048957949595
LJ  -0.13132647539820036   -0.16683295049619173   -0.19829111903935076
LJ  -0.40278683472538374   0.28619757240258309   0.018872452283811358
LJ  0.4042131376000615   -0.26391550944829234   0.013497580311262525
LJ  -0.16985666542355521   0.45004863472542661   -0.16458045802393251
LJ  -0.0039214104034799042   -0.16264917112728622   -0.17364559840379706
LJ  -0.15661220715880816   0.014550456532763842   0.11464806417333898
LJ  -0.0979827776207427   -0.18134873941473892   0.29606873579697562
LJ  0.17113280525202612   0.21330424002345472   -0.16267952474396327
LJ  0.32599438878030335   -0.38103972834134142   -0.16157727142447545
LJ  0.16847548354173478   -0.34057493132328259   0.045870652164930241
LJ  0.32898948635708991   0.21419104375963016   -0.0050130607870310148
LJ  0.49239596358412357   0.1568490447022598   0.45098035807349757
LJ  -0.33469152912763817   0.23342353573489652   0.11974195457463145
LJ  0.47813607582369927   0.36215859210840295   0.27395066051436157
LJ  -0.32852953810463964   0.17184002218622879   -0.3811479509901019
LJ  -0.16392895974358515   0.16152037151734033   0.21145801711765314
LJ  0.0055482140050585015   0.32565883743024848   0.45928280891966983
LJ  0.09214719325935182   0.40865731433886759   0.083663504527816512
LJ  -0.00080800502086644408   0.44126512992030126   -0.14423105124283947
LJ  -0.45561643072408453   0.17296895696674289   -0.16068870416131839
LJ  0.22200935330773588   0.33367909856192013   0.10579650502503293
LJ  0.44663243379166778   0.43023705532003143   0.014560601666521761
LJ  -0.045282231006316835   0.17228933386889939   -0.0019202070415675417
LJ  -0.4932702337798055   -0.21777488298703848   0.27104728635152997
LJ  -0.33010612533913364   0.38778904370157752   0.26173597889196071
LJ  -0.38961728673452178   -0.33783202903057485   0.062858621714255436
LJ  0.2872094117358433   -0.49221350693174709   0.33156571949367986
LJ  -0.16790259954050718   0.38354425655205254   0.15995874430456963
LJ  0.07041345532828075   -0.38920038479347624   -0.094644948980545679
LJ  -0.26698006942336167   0.48822081938206696   -0.4153049815482438
LJ  -0.011732727901230058   0.35024774709373585   0.28848694838662503
LJ  0.42886947092609395   -0.47914887882242641   0.076427783451861811
LJ  0.32803634590376762   -0.35940654405012051   -0.49060467492538312
LJ  0.17467585623639079   0.39400600775664574   0.21608863656015689
LJ  0.33362383571608578   0.22391780433351338   0.44999956593281987
LJ  -0.41617180337184051   -0.17258018204036049   -0.10115385313306258
LJ  0.28569699925470243   -0.0041970549283272566   0.16702850761203095
LJ  -0.22855814528988716   0.10940910224186894   0.4136712104830263
LJ  -0.14455085631492229   -0.12704119990039592   0.33317223461990464
LJ  -0.082340187040038579   -0.10455679168373327   0.067204314917161195
LJ  0.022074849191051345   0.19183436420538871   0.12458867887689219
LJ  -0.11110613835291186   -0.30728509508088175   0.35393561105028537
LJ  0.003115575861417118   0.21305852112208554   0.33724787975354825
LJ  0.14928281885398884   -0.27796468193541451   0.14571933483147181
LJ  0.06331568979540754   0.11264229441154967   0.17483004671507302
LJ  0.14768914481372547   -0.22760684627960312   0.37145793815798178
LJ  0.31970837640801092   -0.28211759529270097   0.3431087190102326
LJ  0.42866629748246399   0.44206872702962346   0.17459508180408748
LJ  -0.2408705172593531   0.35214988913826428   0.44808878076409259
LJ  0.46628493615153838   0.31631327672323539   0.087030164053034931
LJ  0.39591445934068115   0.20825910025429056   0.41183208098942081
LJ  0.49223675965544961   0.12720622491115829   0.16248067006987435
LJ  0.36312221678708523   0.32281388702360087   0.16494719477541825
LJ  -0.27080705844001324   -0.41719226706659818   0.31301043977982168
LJ  0.27127760829921826   0.15813273121846103   0.33532244774965042
LJ  0.18091964063558727   0.065659071819018172   0.18191254258258863
LJ  0.35252130379825197   -0.29896696581297894   0.18621685479352068
LJ  0.17864066706504778   -0.42863875617503983   0.27529717535439874
LJ  0.45841360888916755   0.30303387629583806   0.20699931660887921
