108
#Comment!
LJ           6.19176        -1.05549         4.62769
LJ          -5.97627        -3.14572        0.184476
LJ           5.36141        -3.60908          0.9963
LJ          -5.64217       -0.492972        -4.99484
LJ           3.11604       -0.255024        -3.86752
LJ          -2.28475         -1.6937         5.84634
LJ          -6.43827         4.70036        -2.41603
LJ           1.80237       -0.802031        -4.78535
LJ          -4.96123        -2.78495         1.53655
LJ          -5.11426        0.732089         4.96002
LJ           2.37383        -5.07597       -0.939522
LJ           4.88097        0.610222        -5.59921
LJ           3.69684          2.5122         4.52894
LJ           1.61346        -4.30329         5.36151
LJ          -2.14384        -5.06209         4.15622
LJ          -1.80126         3.83024           1.981
LJ           4.45295        -3.20177         1.47237
LJ          -4.54872        -5.73706        -4.70811
LJ           5.56712        -3.96822        -3.86193
LJ           -2.9085         5.06805        -4.10384
LJ           1.88762         5.98361         2.03638
LJ           2.94478          3.3442         -4.5485
LJ           3.90667          1.8201         6.39328
LJ           2.46776       -0.337459         -4.6548
LJ           1.78091        -3.87024        -6.41429
LJ          -5.49491        -2.18326        -2.01265
LJ           1.94411        -4.10515        -1.66614
LJ           -3.8301        -4.06374         5.68534
LJ           4.71691         0.38008         4.72384
LJ          -4.43258         1.27471        -4.49801
LJ           5.69838         0.75532         3.20252
LJ           2.73862         2.93758         -6.2979
LJ           1.79728       -0.182191          4.4722
LJ         -0.590468        -5.04965        -5.95887
LJ           2.27659       -0.736331         5.52384
LJ          -1.28589         -1.2893         2.20181
LJ          -1.43169        -2.90847        -1.04886
LJ          0.715412        -1.36584        -4.84849
LJ          -6.04733         5.52174         2.87977
LJ          -3.19479        -2.33848         4.26666
LJ           -2.8397        -4.49028        -4.26375
LJ           3.37176         1.73514        -3.02561
LJ          -5.41439       0.0457219         4.17732
LJ         -0.130458        0.582429       -0.600382
LJ          -5.25325        -4.15727       -0.586223
LJ           5.90666         3.82745        -4.01754
LJ          -2.72156        -4.68414        -6.23428
LJ          -4.69384        -6.02478         1.73111
LJ          -3.55336         2.88839        -1.67588
LJ          -1.53783         6.10565        -5.54603
LJ           -1.8473         6.20933         5.89324
LJ           3.19132        -6.34829        0.478831
LJ          -2.47808         5.75684        -1.63365
LJ          -5.17236         6.11881        -5.70678
LJ          -3.84115         -2.0557         5.15717
LJ           4.09544         3.89002         3.62702
LJ          -4.47863         1.72201        -2.10443
LJ          -2.27708         -5.8647        -2.03589
LJ         -0.657418         2.64498        -2.95085
LJ           4.81558         -2.7606        -4.16509
LJ         -0.499271         1.70495        -4.08573
LJ           1.89737         4.89952        -2.81033
LJ          -2.60668       -0.448017         5.62772
LJ          -1.38537         5.45008       -0.558628
LJ           2.12878        -1.67972        -2.05536
LJ           5.30694        -4.27087         -1.3509
LJ         -0.793829         4.96841        -5.40444
LJ            6.1175       -0.771741        -3.53598
LJ           4.50852        -1.13103        -3.60802
LJ          -5.10339        -2.65948        -2.87264
LJ           2.14577         5.01249         3.35391
LJ         -0.444436         6.00487        -1.97903
LJ         0.0690699         3.73247           -1.17
LJ          -4.79146         2.84858       0.0226881
LJ          0.553918        -5.15638         6.07053
LJ           -5.4733         1.39229      -0.0713525
LJ          -4.03484        -5.33105        -2.25924
LJ            5.8809         5.09748         6.03849
LJ          -1.23037        -5.47878        -6.40828
LJ          -6.16394        -3.32501          2.3059
LJ          -5.72179        -5.14356        -4.53811
LJ          -3.66326        -3.27878        0.814009
LJ           5.98095        -6.29612         2.16352
LJ           -4.4832       -0.197603        -6.03505
LJ           0.34832         6.26263        -6.25042
LJ           1.34465         2.18984        -6.02909
LJ         -0.417596        0.690497        -6.32602
LJ          -5.20397       -0.717479         6.29604
LJ           2.09637        -5.58298          1.9283
LJ           1.70878        0.622182        0.741501
LJ          -6.05985        -5.17526        0.617451
LJ          -4.61719         -5.6224       -0.413542
LJ          -1.40327         -2.8683       -0.433557
LJ          -4.66032        -5.01919        -4.25934
LJ          -3.10415        -4.67305        -4.53756
LJ           2.97236         -1.8363        -1.31531
LJ          -2.43202         -2.9575          5.3022
LJ          -5.72042        -3.53697        -3.25116
LJ          -5.23448         4.86867       -0.751794
LJ          -1.50258       -0.213316         2.08692
LJ          -5.54263         5.02609         2.23343
LJ          -1.12005         4.26113         2.61568
LJ         -0.434053         3.37148         1.37488
LJ           2.15626         5.10534        0.536125
LJ          -5.73547         6.27226        -2.76828
LJ         -0.733258         5.60671         1.80926
LJ          -6.40847        -2.42378         6.05216
LJ          -3.56399       -0.147969        -5.44264
