108
#Comment!
LJ           2.91734         1.28968         1.74193
LJ          -1.48446         -4.9117         5.54049
LJ          -4.00132        0.875625        -4.94443
LJ          -4.77545        -1.54702        -1.58194
LJ          -5.46457        -1.71233         3.65955
LJ           6.32957        -3.96258        0.936795
LJ           1.77335         1.69832         1.68406
LJ           4.16875         6.26344         2.52145
LJ          -4.86042        -1.97715        -5.98103
LJ          -4.54947        0.495941        -5.33899
LJ           1.15116         3.25773        -4.95107
LJ           6.20853         4.74766        0.677043
LJ          0.431936         2.67902        -4.13814
LJ           2.24706        -3.76132        -5.21079
LJ          -5.37056          2.5146        0.663569
LJ          -4.17813        -4.14649        -1.04496
LJ           -5.5831           4.098        0.385147
LJ           1.74918         3.07177        -6.30254
LJ         -0.375939         1.89773        -3.61875
LJ          -4.13154         1.88976         2.99271
LJ          -0.40494       -0.225134         3.53294
LJ             4.868         -2.9885        -1.85401
LJ          -5.63549        -3.93322         1.79657
LJ           -6.1569         5.92976         1.54424
LJ          -5.44187        -2.03004         4.47058
LJ         -0.712766         3.15327         4.97214
LJ           5.24418        -2.33898         3.05405
LJ          -2.91147         0.60848         1.95155
LJ           5.89649         -4.6063        -4.05872
LJ          0.981028        -1.79118          4.8121
LJ           5.21538         2.86359        -3.10478
LJ           3.18449         6.12989         3.78214
LJ          0.524595         4.39332        0.946338
LJ           1.47762          3.2276         2.73555
LJ          0.605069         5.44385         -5.2454
LJ          0.830168         3.83278        -5.17074
LJ           2.79382        -6.07476        -2.36716
LJ         -0.429125       -0.164564         -4.3713
LJ          -4.77954        0.584206         3.70289
LJ          -2.68475         5.76012         6.13278
LJ           4.76464       -0.127639        -4.04528
LJ        -0.0396167         2.60103        -3.82242
LJ           -5.7686         3.07673        -1.07597
LJ          -3.63897         2.40443         -1.8229
LJ           -3.3183        0.908971        -4.47767
LJ          -3.92975        -6.01211        -1.03629
LJ           4.66738        0.623793        -2.47524
LJ          -5.24972         1.10866        -5.06382
LJ           5.62613        -3.62636       -0.806718
LJ           1.04952         5.83515        -1.12015
LJ          -5.94531        -1.50252          5.9241
LJ          0.823346        -2.23401        -2.16431
LJ          -3.17235        0.617283        -6.26991
LJ           1.00544        0.133588        -3.05893
LJ         -0.299541         4.93145        -5.19002
LJ          -4.58673         2.94967        -5.53703
LJ         -0.142839        -4.45043        -4.38255
LJ          -2.46746        -5.29363         1.48348
LJ           -5.7032       -0.165747         4.13924
LJ        -0.0911725         -1.0237        -1.01672
LJ          -6.19431        -4.65639        -2.63029
LJ          -3.85092        -2.79552         5.07808
LJ          -3.27769         3.25793        -1.29232
LJ           1.82681         2.36761         4.29773
LJ           5.65677         2.19243        -2.30234
LJ          -5.57175        -5.49508        -0.60671
LJ           6.07628       -0.640281         2.76238
LJ          -5.24008        -2.89607          4.0075
LJ          -4.06204      -0.0193493         2.93474
LJ           -2.9995        -3.80496         -4.6534
LJ           4.05681         3.35421        -4.08192
LJ           5.44684        -4.25151          1.8309
LJ          -5.73778         4.20904         3.76545
LJ          0.599712         2.87592         5.19964
LJ           1.22933         3.69933        -2.61241
LJ            4.8609         3.37868        -5.43803
LJ           6.30503        -6.28979         3.13324
LJ          -4.94182       -0.217429        -5.35451
LJ           5.52404        -4.28279       -0.772321
LJ           -1.0311        -1.59922         2.15121
LJ          -5.63652         2.35959        -3.49375
LJ           1.57959          5.8056       -0.511828
LJ          -6.06467        -4.98052         4.58007
LJ          0.153235         -5.0347         -4.8717
LJ          -3.99094        -6.28166        0.750562
LJ           -6.3421        -5.15553        -3.74479
LJ           2.04078         6.06649        0.453656
LJ           5.17261        0.812286       -0.747243
LJ          -2.29842        -4.51845          2.4115
LJ           5.29541        -3.55942        -1.36843
LJ         -0.226896        -3.99996         1.84428
LJ           5.67061         2.61404         3.42759
LJ           0.55184        -1.96377        -5.50254
LJ          -1.11693         5.49046        -3.30249
LJ          -3.40175         5.40261        -5.54944
LJ          -4.88575         1.22441         2.24782
LJ           6.18587         6.17778         2.59736
LJ           3.18324         -1.8339       -0.265922
LJ         0.0774613        -5.23032        -1.51923
LJ         -0.302019        -4.63753         -1.7602
LJ          -6.13649       -0.191339         5.30279
LJ          -5.74606        -4.69013        -4.36875
LJ           4.19592         2.89156         1.47054
LJ          -2.75503         1.37138        -3.46905
LJ           4.85539         4.98099        -3.41569
LJ          -6.13314         2.36161        -6.38389
LJ          -3.63407        0.435813         3.23094
LJ           -4.3141          1.7484         3.49188
