108
#Comment!
LJ           1.14936        0.842853        -1.99608
LJ           4.88749       -0.815684         5.00061
LJ           4.48133        0.925812        0.163886
LJ           4.22702         2.59203      -0.0850179
LJ          -4.89465         6.10373        -4.13797
LJ           4.52335         2.52348         1.18697
LJ          -2.76059       -0.251746         3.49055
LJ           3.94346        -1.59744        -3.75982
LJ          -3.30101         3.50793         2.66341
LJ          -3.68103        -1.62706        -5.40229
LJ          -1.33861         1.31475        -5.44129
LJ          -3.55067         4.30759        0.462871
LJ           1.78713        -5.40162        -0.48797
LJ          -2.73023        -3.54934        -1.71558
LJ          -1.34466         2.51747        -4.95003
LJ         -0.763933        -1.93787         3.92055
LJ          -1.82911         -2.2392        -5.93048
LJ         -0.390297        -5.90748         -5.7517
LJ          -2.00616        -2.75639        -4.53059
LJ          -4.32171        -5.27897         5.29819
LJ          -2.29191       -0.263824       -0.973162
LJ           4.03175         6.17295         1.67552
LJ           5.84311         1.49839         5.34965
LJ          0.929232        -3.59448          1.4981
LJ          -4.18334       -0.510781      -0.0463106
LJ          -6.07686         -6.1827        0.267992
LJ          -5.99112        -4.89958        0.376772
LJ          -4.35697       -0.139354        -6.10024
LJ          0.525117         4.17653         1.46536
LJ          0.887411       -0.704304         2.99234
LJ            1.5482         4.72208        -4.57424
LJ           3.13041         6.04806        0.641079
LJ           4.79688        0.902083         4.64223
LJ            2.6539        -3.42981        -2.85081
LJ           5.48577         3.75306         2.19992
LJ          0.742795        -1.28068        -2.24048
LJ          -3.39793        -6.33986         5.19357
LJ          -2.82903       -0.263045         1.87252
LJ          -1.43687       -0.142055         4.67377
LJ           -5.6681         4.67524         -1.4541
LJ           5.51987        -2.43684        -2.32165
LJ           2.25212        -4.20294         4.56872
LJ          -0.81593        -1.16876          -1.287
LJ          -2.58709        -1.31241         2.41888
LJ           2.94672         1.85915         4.45702
LJ           6.32414        0.835438         1.19675
LJ           -4.9626        -3.27202        -2.74652
LJ          -3.64391        -1.61184         6.44268
LJ           3.47359        -2.11339         5.48542
LJ           4.55849        0.293991        -5.21753
LJ          -2.44852        -3.08818        0.947199
LJ          -2.36055         5.23484        -3.47082
LJ          -4.57511        -5.78913        -1.78309
LJ           3.69453         4.67718         0.28879
LJ            1.3666         5.39054        -2.18031
LJ          -2.74916        -5.92096         6.09497
LJ           5.46285         2.92652         -2.9454
LJ          -4.47098         3.95759         -2.9122
LJ           4.94756        -6.43255         1.45899
LJ          -1.54866        -4.64499       -0.475153
LJ          -3.33177       -0.611941         6.29881
LJ          -2.47537          4.6333          2.7526
LJ          -6.19106         5.26856        -5.20939
LJ           5.20295         5.15241        0.957837
LJ           6.09466         6.17693          1.0109
LJ           3.43052          6.1169        -2.37934
LJ           4.86774        -5.09968        0.455898
LJ           1.92264          2.6742        -5.91589
LJ           5.03914        -1.28978        -2.72924
LJ           3.23466         3.26751          1.9393
LJ          -1.35381         1.20855         1.39729
LJ          -1.95222        -1.17822        0.977311
LJ           -4.8247        -4.45235        -2.79683
LJ          -2.82551        -3.78334         4.39075
LJ           -5.3433        -4.54792         -5.1931
LJ           1.67213        -2.29248        0.805782
LJ           3.01544       -0.104396         3.87579
LJ          -1.88545        -2.04608         3.66365
LJ          -6.21652         6.24439        -4.19511
LJ          -3.09532        -3.69702         5.85591
LJ          0.557469       -0.727569        -6.39519
LJ           4.00402        -1.82115         -2.4339
LJ           3.40586         0.29309       -0.908474
LJ          -2.07017       -0.865541         4.08587
LJ           2.27391         5.58085        -5.33181
LJ          -4.21502       -0.618558         1.13707
LJ          -1.13538         1.55273         2.68271
LJ          -3.77871         6.10258         -5.2017
LJ           3.30554        -2.69179        -2.02234
LJ           1.64954         6.02503         1.27246
LJ          -5.93394         4.74758         4.36137
LJ           5.56964       -0.645935         -2.0982
LJ           5.70887         4.86032         -3.9666
LJ           1.77598         1.29409       -0.552763
LJ          -5.66271         6.35503        -3.02949
LJ           4.85965        -1.94107        -1.54769
LJ          -4.07161        -1.07977         3.21993
LJ          -1.41917        -6.17398         5.91535
LJ          -1.41332        -3.43201         -4.1353
LJ          -6.19159         3.62996       -0.997766
LJ         -0.697318       0.0389887          1.5798
LJ           2.30621       0.0364729       -0.625354
LJ           3.34881        0.586044        -4.61437
LJ         -0.499756         1.21349        0.422914
LJ           6.40049         2.41631         1.99528
LJ           3.68216         3.53398        0.905351
LJ          -4.08985         -2.7096        -2.59627
LJ          -5.93057         1.53877         5.82548
