108
#Comment!
LJ           6.25898        -4.32553        -1.16612
LJ          -3.25841       -0.556548        -5.46319
LJ           1.55416        -5.00942         3.07398
LJ          -2.72658          4.6009        -2.33881
LJ          -1.46408         2.36362        -5.90153
LJ           5.27307         5.47691        -4.70219
LJ           3.67723        0.241223        0.527472
LJ           4.60118        -2.38026        -6.26561
LJ          -5.62732         6.06714       -0.389372
LJ           2.05657         1.83587       -0.902413
LJ          -2.16899        -5.98205        -1.86287
LJ         -0.668837         3.45812         -1.0287
LJ             5.466        -2.22697        -1.27776
LJ          -4.34505         2.94056         5.46663
LJ           5.93314         3.17648        -3.11698
LJ           4.63284       0.0346559         3.47896
LJ           3.74706        -4.02344         6.20593
LJ          -1.59009        0.489229       0.0479056
LJ          -4.61535         2.96178         1.04109
LJ          -1.49046         2.85202        -3.80516
LJ           1.02259        -4.14771        -5.24733
LJ           4.24902        -4.95496         6.35899
LJ          -1.75229        -3.37956         4.02333
LJ           2.13627        -4.03576        -1.46958
LJ          -6.37106         3.30619        -5.47102
LJ          -4.91131         2.10997         2.47171
LJ           4.45005         6.18164        -1.90833
LJ         -0.526994       -0.146811         2.41323
LJ         -0.300113         2.07997        -5.88126
LJ          -3.04099         5.03557         2.41008
LJ          -2.58377        -2.00845        -5.28651
LJ          -2.88121         6.36865          3.4955
LJ           5.30239        -6.13481       -0.193356
LJ          -2.97732         5.47245         2.03017
LJ           4.60377        -4.86622        0.290113
LJ          -4.87857        -1.78163         -1.5285
LJ           2.62724         2.90006         4.75262
LJ          -1.32982        -4.31177       -0.788613
LJ          0.164989        0.157339        -5.41359
LJ           4.63829        0.546621        0.133503
LJ           2.04909         2.20328         1.58856
LJ           -0.7233         2.56839       -0.706583
LJ          -3.07003         4.52219         5.16342
LJ          -6.24553         5.68887        -4.96247
LJ          -2.48673         1.62561       0.0068042
LJ          -0.97377        -4.94678        -6.03701
LJ            -5.485         1.46094        -2.19222
LJ           3.99343        0.198548         2.10692
LJ           2.18632        -5.91615         3.71102
LJ          -1.73053        -1.64582        -2.92251
LJ          -2.23542         1.21587        -3.47604
LJ           3.64453         5.43131         3.67789
LJ           5.38643        -1.44986        -5.23273
LJ          -0.79915        -5.28869        0.514669
LJ          -4.95946         4.65684         6.12525
LJ           1.96026         5.48622         2.72558
LJ           -3.7888         3.51903     -0.00337013
LJ          -5.85905        -6.34751         6.13083
LJ          -0.98116        -5.61546         3.43587
LJ           2.47809         3.86516         4.14007
LJ           2.69833        -4.59822        -3.05413
LJ          0.718567        -2.87099        0.132189
LJ           3.35234         1.12194        -2.30419
LJ          -1.70811         3.13048         4.07306
LJ          -1.89899        -6.46319         1.34438
LJ          -6.46009        -5.96701        -2.17714
LJ          -5.23241        -2.63797         4.56098
LJ           1.52557        -1.66384        -4.47388
LJ           4.48654         1.15645         4.82268
LJ          -4.76069         2.65335       -0.823478
LJ           4.23155        -4.55202         3.07756
LJ         -0.822773      -0.0141442          5.7611
LJ          -4.53604           -5.87         2.66024
LJ           5.44629        -1.94346         2.57301
LJ           3.81426         -4.7406         2.08847
LJ          0.553098        -3.31487        -5.31772
LJ           5.12157         3.04076         5.72476
LJ          0.372436         2.00425         5.33902
LJ          -3.15454        -5.19263         2.14664
LJ          -4.01084         4.09435        -0.87435
LJ           5.58126         2.20912         3.77481
LJ          0.920787         2.86337         5.31861
LJ          -3.64683        -1.02235        -4.32553
LJ          -1.50139        -3.08197        -5.13844
LJ          -5.18679        -5.42833        0.953181
LJ           4.12136        -5.01655        -3.64364
LJ             2.655        -4.40175         -4.6071
LJ          -4.58329        0.945697        -5.65575
LJ          -6.33684        -3.03611         3.59688
LJ          0.835066        -2.05211         2.15062
LJ           1.34484         5.65746        -3.87529
LJ          -0.32012         5.95877        0.268997
LJ           1.19333        -5.29931         3.75337
LJ          -5.02727         1.04591         2.31363
LJ           6.13727         4.02884        -4.70211
LJ          -5.12614       -0.491379        -4.25572
LJ           5.12512         5.82717       -0.600679
LJ           -3.8525        -3.26037        -6.39162
LJ          -2.37307        -4.47487          -6.365
LJ          -5.28347         1.30843        -5.48903
LJ           2.69873         5.41055         4.75463
LJ          -3.64365         2.45908          3.8596
LJ          -2.09178          6.4436        -4.70005
LJ           2.17884        -4.80097         3.63603
LJ          -1.97228         5.68616         5.11104
LJ          -1.67399         -3.6743        -3.10549
LJ          -6.03881         4.87852        -3.16676
LJ          -2.56819         5.88536         6.11899
