108
#Comment!
LJ            3.7517         4.70224         6.22558
LJ           4.83389        0.863155         6.41354
LJ            1.6183         -2.4774        -2.23825
LJ           4.22188         1.93901        -3.87867
LJ           -4.1254         1.67497       -0.438746
LJ           5.49781        -5.91972        -1.85396
LJ          -4.96903        -4.13565        -2.41673
LJ          -4.28605         2.29523        -2.69373
LJ           1.72902         0.63476        -1.66119
LJ          -6.32288       -0.818586        -1.55391
LJ          -5.61585        -1.97423        -1.62643
LJ         -0.508514         5.70198        -3.04035
LJ          -0.15163          4.1288        0.231763
LJ          -5.47781         1.23908         4.51017
LJ           -1.6093        -5.36389         1.13111
LJ           5.96073        -1.60448         2.41728
LJ           2.85008        -4.15106         -1.0765
LJ          0.648566         3.73238       -0.673677
LJ          -5.57393         -3.7387       0.0356511
LJ          0.794342         5.60112         2.19737
LJ           3.36075        -5.42342        -4.80017
LJ          -2.84842        -1.90695       -0.730168
LJ           4.37815         2.95354         2.22167
LJ          -2.55019        -1.13791         6.39322
LJ           4.67644        -4.34745        -6.22579
LJ          -2.44959        -1.59687         5.79793
LJ           -3.3062        0.582964        -3.63239
LJ          -2.76008         2.98241          1.0178
LJ         -0.553276         5.56361         4.37509
LJ           5.63818        -1.56035        -3.24313
LJ           2.40041         5.70324        -5.66882
LJ           6.04039        -3.80896        -5.27144
LJ           2.23499         5.51471        -1.88785
LJ           -3.8263         5.95014         3.75929
LJ          -2.61704        -4.71274        -1.16205
LJ          -1.82014          4.7927         1.44954
LJ          -4.59433         5.79148         4.79921
LJ          -3.38866          5.7083         2.47728
LJ          -5.48366        -5.70652         4.67887
LJ          -2.76559        -2.71204         4.73344
LJ         -0.877848       0.0243149         5.25238
LJ           4.57572        -5.10276          4.4651
LJ           6.30493         5.75126         -6.1454
LJ          -1.26044         2.66182        0.875425
LJ           5.04985         4.01879        -3.13813
LJ            1.8406         2.10887        -4.99257
LJ             2.701        -5.29704        -4.58274
LJ          -2.97418       -0.619926          1.6835
LJ           5.05378        -5.59823       -0.679725
LJ          -1.15937        -4.70896        -2.75149
LJ          -3.38879         3.91712         3.40431
LJ         -0.721301          -1.491         6.37348
LJ          -3.65645        0.230417         5.15771
LJ          -1.35548         2.48516        -2.19258
LJ           3.49799        -1.63518         2.70859
LJ           3.25133        -4.67946          6.2602
LJ           6.21705         5.72075         1.43021
LJ           1.96628        -4.93418        -2.16377
LJ          -3.65391        -4.52573        -1.30585
LJ           2.38054       -0.849889        -2.40313
LJ          -2.00623        -2.03851        -4.53344
LJ          0.784875        -2.96326         4.32865
LJ          -1.55832        -1.82419       -0.978906
LJ           5.61501         1.97043         1.80585
LJ          -1.85278         3.19634        -1.63419
LJ          -1.98552         2.31412        -6.18585
LJ           3.55352        -2.56532         -2.8644
LJ           6.10739         3.64766           6.392
LJ           5.94877       0.0666976       -0.935309
LJ          -1.37379        -2.35529         5.66307
LJ           -1.4386      -0.0915846         4.79158
LJ           4.59698        -6.21717         1.72645
LJ          -1.03578        0.417897        -1.89369
LJ          -3.30931         -4.2386         2.49185
LJ          -5.61095        -1.00186         2.99669
LJ          -1.36197          2.9547        -2.22533
LJ           5.74046        -1.76603         1.12314
LJ          -3.10225        -5.12844         -2.9686
LJ           2.87823         3.50201        -5.24547
LJ           4.25028         5.91103         6.13059
LJ         -0.961879        -1.61003        -6.16591
LJ         -0.110207         2.06984        -4.80663
LJ           5.61611         2.48811         4.93458
LJ           2.31475        -0.84967         5.68972
LJ           2.19829         4.60613        0.399558
LJ         -0.935195       -0.644262         3.09503
LJ           1.54973       -0.571538        -1.88507
LJ           4.07909         3.30896        -3.75478
LJ            1.3544        -1.12077        -3.96329
LJ            5.2863        0.321547         -1.0445
LJ           2.22215       -0.308351        -3.01825
LJ          -4.32149         3.00109         3.12855
LJ           -2.6607        -3.26605        0.421062
LJ          -4.48191       -0.740182        -3.19484
LJ          -5.90235        -5.65709        -1.77708
LJ           5.77939        -2.22893         3.50311
LJ          -4.69518         4.64081        -3.07548
LJ           4.33504        0.352576       -0.706431
LJ           5.17188       -0.942831        -1.25186
LJ          -2.71895        -3.67747        -1.64755
LJ          -2.63003         3.44134          5.3972
LJ         -0.555546         1.52412        -1.46636
LJ          -4.17751         2.81539         2.10084
LJ           5.48154         2.67427         5.40708
LJ           2.74441         6.14117         2.61781
LJ           2.33157          1.4394         2.70724
LJ           2.91493         2.69138         1.45791
LJ          -3.68121        -3.97975         5.49774
