108
#Comment!
LJ          0.186433         0.26864        -3.25955
LJ           6.40875          0.1335        -5.91904
LJ           5.90331       -0.192098        0.181058
LJ           4.38803         4.75284         -3.8636
LJ           5.02448         2.03548        -2.09643
LJ           6.33169         1.65597         1.05641
LJ          -1.22669        -1.41857         1.39701
LJ           2.29145       -0.708899        -3.84203
LJ          -4.22601         6.16719         4.26021
LJ          -2.72888        -4.03911        -4.86197
LJ           1.01121         3.13043        -5.64788
LJ           -4.6935         5.54266        -1.16217
LJ           3.42737         -2.9814        0.108808
LJ         -0.302951        -5.67537        -5.16196
LJ         -0.665173         4.94031        -3.72294
LJ          -3.57495        0.804575         3.07155
LJ          -6.13278        -1.32917        -4.83977
LJ         0.0657406        -2.00366          5.5717
LJ          -2.80028        -1.06237        -2.93611
LJ           5.53187        -1.62525         2.65696
LJ          -1.49909        -4.08503        -5.37655
LJ           2.40213         -5.4263         3.36009
LJ           5.14123         2.87559         3.18703
LJ          -1.87753         5.28293         2.96079
LJ          -5.68824        0.809673         2.85538
LJ          -5.50987        -2.77515         3.60872
LJ            6.2769         -3.4422         3.11658
LJ          -4.00039         2.01558         4.92915
LJ           1.46314         2.16119          3.2467
LJ           0.43955        -3.80017         0.39275
LJ          0.987307         5.00355        -4.18767
LJ           3.06852        -4.80299         4.26763
LJ            5.2881         3.67911         5.27406
LJ          0.364421        -5.75582        -4.27995
LJ           6.03325        0.927537         2.51592
LJ           2.36493       -0.886236         0.13777
LJ          -2.13241        -5.16771        -6.18316
LJ         -0.262773       -0.853183         1.72807
LJ          -2.43543       -0.980161          1.6215
LJ          -5.70318         2.62313       -0.305316
LJ           3.52375         -1.2004        -1.09108
LJ           5.37351        -3.08039         5.83656
LJ          -3.88524         1.86323        -1.29979
LJ          -1.80632        -2.05953         2.25175
LJ          0.458399        -1.67954         2.09392
LJ          -4.72278         1.78818         3.78706
LJ           5.66281        -1.31172        -2.57974
LJ          -3.29321        -2.52447        -3.79122
LJ           3.73383        -4.32557        -5.82459
LJ           4.51701      -0.0623715         1.52164
LJ          -3.83239       -0.848083         2.24382
LJ         -0.390959         2.69038        -4.75117
LJ           6.18215        -2.73413         2.12599
LJ           4.13208         2.15422        0.242947
LJ         -0.273361          4.5858        -2.28684
LJ          -1.60708          -3.837         6.33382
LJ          -4.00705         1.44426        -2.46513
LJ          -5.43117         2.41361        -3.80861
LJ          -5.03335        -6.42979          3.4819
LJ            3.4966        -1.39022       0.0775334
LJ          -4.33116        -3.32748         5.44853
LJ          -2.26894         5.25221         5.20724
LJ           5.19878        0.464162        -3.80389
LJ          -5.48456         2.05294         0.73932
LJ          -5.36281          4.1096       -0.406343
LJ           3.01686        -5.30235        -6.20397
LJ          -4.47903         1.66009      -0.0347704
LJ            2.7855         2.54317         3.65944
LJ           3.30212         -2.0716        -1.81959
LJ            3.9247         2.84044         2.27529
LJ          -1.31363        0.605072         2.34397
LJ           1.19378        -0.81517        0.170535
LJ           -2.2447        -3.17791        -1.29975
LJ          -2.29095        -1.80647         1.16816
LJ          -5.82294         5.29463           4.716
LJ           5.34067         2.44952         1.34424
LJ        -0.0754953        -5.60683        -1.67836
LJ          -1.01569        -2.48309         3.03306
LJ           3.41009         6.03162        -5.22568
LJ          -2.30487        -3.39391         2.84652
LJ          0.289339       -0.860143         4.69701
LJ           3.69896        -3.36714        -2.04741
LJ           1.94449       -0.538148       -0.985058
LJ         -0.859483        -1.66849         2.42688
LJ           5.32882        -5.44116         -3.8666
LJ          -6.11467            1.26          1.9538
LJ          0.192157        0.846184         2.69194
LJ         -0.702679        -1.04555        -3.18934
LJ            4.4667        -2.08499        -2.51612
LJ          0.397464        -5.79446         5.53568
LJ           4.58365         6.32051         4.59074
LJ           6.15395        0.209727        -1.36199
LJ           2.85767         3.39952        -2.73804
LJ            2.9972         2.92155         -0.1884
LJ          -5.91668         4.08637        -1.34086
LJ            4.0695        -2.39017        -1.12323
LJ            -5.503        0.296687         1.29014
LJ           -4.1184         5.15743        -2.73367
LJ         -0.486466        -3.04829       -0.332815
LJ          -4.98689         3.55623        -1.96355
LJ        -0.0646123         1.33639         1.68648
LJ           2.61159        -1.47341       -0.836824
LJ           2.23396       -0.210122         6.22257
LJ         -0.499281         1.42838        0.606556
LJ           4.45288        0.854347         2.36653
LJ           3.74038         2.00036         1.55444
LJ          -5.98681       -0.537089        -2.78649
LJ           4.62211         1.74799         3.33907
