108
#Comment!
LJ            5.9217        -1.27615         1.85544
LJ          -3.67859         4.35437        -2.97898
LJ          -4.29039       -0.378143        0.938677
LJ          -4.44714         5.26662          5.6024
LJ            2.3949         3.42185        -6.42164
LJ           2.40366        -3.31866         4.97342
LJ           3.39946         2.26199         4.31702
LJ           0.20762        -4.25722          3.2926
LJ          -6.06242         4.98382         3.09095
LJ           5.88736          3.8741         1.50287
LJ          -5.08903        -2.97095         2.31922
LJ          -6.43649         -6.1334        -3.79061
LJ           3.99169        -6.31319         5.18446
LJ          -6.37227       -0.989504         6.41968
LJ          -4.21972         2.74832         5.75861
LJ          -2.85527        -3.83791          4.4527
LJ          -6.01353         1.95214         4.97374
LJ         -0.479068         -4.9133        -5.03363
LJ           4.79461        -4.40368        -3.02059
LJ          -5.70763        -4.20369         4.06397
LJ          -3.85705         5.05098         -3.3794
LJ            5.7286        -1.11772        -2.01875
LJ           2.31326       -0.762053        -6.01709
LJ          0.722944         3.48806        -1.40285
LJ          -1.57722         4.70856         1.87679
LJ          -1.91139       -0.411756        -6.06585
LJ          -4.70832        -3.69228        -3.37059
LJ          -3.53917        -1.99232         5.93583
LJ           6.23811        0.619141        -6.22791
LJ          -5.80777          5.3578       -0.221442
LJ           3.18487        -6.00781         3.39694
LJ         -0.265115         2.76708         5.24076
LJ           3.95443        -3.93088        -2.57867
LJ             3.885        0.790379        0.092558
LJ           5.71882        -2.66701        -5.62444
LJ           2.65175         2.27461         4.95019
LJ           5.80599        -2.68805        -5.40279
LJ          -6.29937         -2.6612        -3.90295
LJ            3.9742         3.09666          1.2011
LJ           6.01565        -1.60943        -6.03935
LJ           2.49296         1.13394         1.29294
LJ           5.37012        -5.05055       -0.653776
LJ           4.80929         5.76787        -5.99133
LJ           4.07292         5.56324         4.73702
LJ           4.30455       -0.259563         4.38126
LJ          -2.99844         3.64517         6.05168
LJ          0.836352         2.65776        -2.06455
LJ          -5.06914         2.15101        0.900902
LJ         -0.566005        -4.79452         6.25492
LJ           2.70219       -0.225966        -2.72949
LJ           4.20786        -1.59775          1.0992
LJ          -1.65763         5.41994         -3.6967
LJ         -0.289302        -1.78254       -0.541035
LJ          -2.18338         3.21302         5.36579
LJ           5.11057        -4.18629          2.1285
LJ         -0.209945         4.41451         1.66075
LJ           1.06042         2.01806         4.02728
LJ          -1.79928         -1.6293        -6.31008
LJ           4.92578       -0.389662        -5.30001
LJ            3.5785         6.12365        -5.22294
LJ         0.0461062        -6.05358        -2.84402
LJ          0.754418         6.00784        -5.12358
LJ           3.53686        -2.71341      -0.0685081
LJ           5.09797        -2.09078         5.45866
LJ           6.36825        -2.61313        0.385133
LJ           2.40726          1.7178        -5.01591
LJ          -2.97552        -4.07138         5.23161
LJ         -0.989539         3.49538         -3.3839
LJ           2.49179         -1.9299         2.81188
LJ           2.82872         2.83152       -0.838799
LJ           3.29352         1.27816         2.17906
LJ           5.58249         4.80181        0.995539
LJ          -1.63491         3.84633       -0.620343
LJ           4.81012         2.96486       -0.655414
LJ          -5.48701         4.79126         2.20137
LJ           -3.7626          3.1677         4.82784
LJ           -5.3645         4.55676        -2.17653
LJ         -0.171367       0.0459643        -1.32749
LJ           5.04908        -3.47148         1.93971
LJ          -1.72563        0.913694         1.05685
LJ           3.37593          2.9335       -0.746098
LJ          -2.50846         1.09877         1.54237
LJ          -3.33455         4.64577         5.25002
LJ           5.19121        -2.67598        -5.51789
LJ           5.60158        -6.09738         3.99948
LJ          -5.70829        -5.46224         1.41212
LJ          -4.86088        -2.78609         3.75163
LJ           1.85797        -3.98547         5.22964
LJ          -3.55232        -4.51341        -2.15709
LJ          -1.60449        -3.84598        -4.38367
LJ          -5.06456         0.80388        -5.73337
LJ            1.0715         4.68218         2.65465
LJ           4.65535         2.29489         2.81111
LJ          -5.31289        -1.06706         6.14678
LJ        -0.0875252         4.35603        -2.02042
LJ           4.56445         2.85897         5.13298
LJ           1.87176        -5.82787        -2.95019
LJ            3.9284         2.85426            3.04
LJ           3.18756        -3.37706        -6.37043
LJ          -5.81249        -1.43973        -5.79349
LJ          -2.32111        -2.25754        -4.83666
LJ          -5.41972         1.81193         -0.1414
LJ          -1.54663        -5.34824        -2.09298
LJ           3.05732        -4.90333         5.72526
LJ          0.677227          2.4933         1.29517
LJ           3.49004        -4.31779         4.46284
LJ           3.72831         2.93621        -2.00543
LJ          -4.98029         4.20764         0.41226
