108
#Comment!
LJ           2.38735         3.51598        -4.61691
LJ          -5.42174         0.64659        -4.45083
LJ          -6.19924       -0.346489        0.219692
LJ           2.36229         6.11665         5.98775
LJ           1.66463       -0.974054        -2.78428
LJ           6.30826         4.37804         1.70507
LJ         -0.221597        -2.09238        0.875808
LJ           0.91142       -0.117461        -3.75046
LJ          -4.44229        -4.61165         6.24794
LJ         -0.128613        -4.10447        -5.02624
LJ           2.27003         4.39422        -5.37749
LJ           6.28203        -6.21431        -1.53419
LJ           6.09558        -1.12591       -0.156717
LJ          0.582136          5.4883        -4.74307
LJ         -0.120076          3.6241        -2.14967
LJ          -4.62474         3.09636         1.36697
LJ            3.5758        -1.37692        -4.38406
LJ         -0.202207         -1.8897         6.16756
LJ           -2.8955       -0.835366        -2.01312
LJ           3.44919       -0.347492        0.573945
LJ          -0.53454        -3.14016        -4.05741
LJ           1.99545        -3.33193         5.28376
LJ           4.26381         2.52571         2.67877
LJ          -4.03867          2.2292         3.69161
LJ          -6.42465        0.351041         4.85974
LJ          -5.02156        -1.29425         5.36069
LJ          -6.02061        -1.57999         5.93117
LJ          -2.66258         4.09637         5.24131
LJ           4.16638         2.12524         4.65795
LJ           3.68972         4.55897         1.29918
LJ          0.213269          4.8083        -3.87046
LJ           2.28052         -3.3773        -6.16179
LJ           5.30657          1.3544         6.40279
LJ         -0.952078         5.01302        -5.05477
LJ           4.12596         -2.6865         6.07414
LJ           3.79239       -0.337979       -0.615263
LJ          -2.57059         4.98312         4.90144
LJ          0.573225         -1.4552        0.612791
LJ          -1.99785         2.23028         1.21381
LJ          -4.80909        0.648324       -0.963259
LJ           1.97488        -1.78579       -0.574004
LJ          -5.27949        -2.43715        -5.90975
LJ          -5.78401         4.45632        0.836182
LJ         -0.907157        -3.17602        0.775594
LJ          0.208681        -2.48144      -0.0758553
LJ          -5.06372         1.86287         2.76405
LJ           3.64197       -0.295511        -2.55106
LJ          -2.40122        -2.55678        -1.21912
LJ           5.51516         -3.2537        -4.66374
LJ            6.0616       -0.167891       -0.506275
LJ          -5.91628        0.948185         2.59811
LJ           2.12896          1.9257         5.70049
LJ           4.16274        0.843769         5.00186
LJ          -5.72988         1.81331       -0.216234
LJ          -1.43083          3.6264        -2.67793
LJ          -0.83487        -2.63213         5.93327
LJ          -2.14626       -0.332772        -4.15711
LJ            6.4041         1.39732        -3.69095
LJ           -3.9977        -4.86847         1.79039
LJ          -6.04996       -0.933979        -0.95562
LJ          -4.81444        -5.69152         5.19549
LJ            -2.024         4.66107         -6.0305
LJ           4.23511        -3.40695        -2.40082
LJ          -4.38474         1.11085        0.262339
LJ          -3.53756         3.30132         0.44377
LJ           1.36299         6.25341         3.73024
LJ          -3.62378        -2.24167        -1.14981
LJ           2.17511          1.4778         1.60844
LJ           3.07456        -2.53877        -0.75022
LJ           2.49853         3.87785         2.29811
LJ          -1.81791         1.10156          2.4824
LJ           1.32697        -2.00655        0.337671
LJ          -1.77536         -2.5219       0.0391881
LJ          -1.55102        -1.55862         1.26785
LJ          -4.85524         3.68268          4.4031
LJ          -5.52171         5.67925        0.725513
LJ          -3.68419        -6.44557         -5.6698
LJ          -1.97079        -2.61673          1.7738
LJ           1.68715        -6.16018        -6.18106
LJ         -0.033628        -3.58782         1.59795
LJ           0.35841         1.89259         4.19955
LJ            3.7981        -1.99419        -2.10584
LJ           1.69566        -2.27778        -1.57478
LJ         -0.531929        -2.53258         2.01593
LJ          -6.09245        -4.59157        -2.52571
LJ          -5.83162        0.480478         1.10293
LJ          0.955429        0.836988         1.62683
LJ         -0.903419       -0.636897        -2.01363
LJ           4.96131       -0.413165       -0.652319
LJ        -0.0502769          -3.619         4.86708
LJ           1.99602        -3.51866         3.64911
LJ           6.11549        0.249899         -1.5281
LJ           1.69558         1.60207        -1.89695
LJ           3.17378         3.65536        -0.21366
LJ           5.85776         3.72016       -0.550493
LJ           3.72907        -1.44222       0.0142382
LJ          -5.39645        0.737834      0.00802471
LJ          -4.18448          3.1172        -0.93741
LJ         -0.513863         -2.4381        -2.32919
LJ          -4.35492         3.39503        -2.08249
LJ          -1.07617        0.272581         2.19416
LJ           2.20646        -3.38475       -0.312125
LJ            1.3006       -0.832756         4.63952
LJ         -0.374336         1.11771          1.3116
LJ           4.15732        0.473928         1.90318
LJ           3.77322         1.52445         1.69284
LJ           4.48849        0.601515        -2.68624
LJ           4.25338         1.20071         2.67064
