108
#Comment!
LJ          0.277192        0.338415         -3.1267
LJ           6.30706       0.0448076        -6.07992
LJ           5.79537       -0.133046        0.195137
LJ           4.57197         4.62114        -3.55267
LJ            5.2296           2.436        -2.32873
LJ           6.21327          1.7229         1.03603
LJ          -1.38048         -1.3739         1.57004
LJ            2.4339       -0.768061         -3.8441
LJ          -4.28221         5.99622         4.03662
LJ          -2.89579        -3.97654        -4.85514
LJ          0.839929         2.97251        -5.64901
LJ          -4.55577          5.4794        -1.03545
LJ           3.31205         -3.2395       0.0849035
LJ          -0.51214        -5.57247        -4.89956
LJ         -0.673018         4.81495        -3.84928
LJ          -3.34647        0.576676         3.30946
LJ          -5.78688        -1.29689        -4.89549
LJ         0.0397208         -2.3132         5.70452
LJ          -2.76377        -1.10586        -3.08713
LJ           5.84973        -1.81409         2.86852
LJ          -1.66442        -4.15947        -5.48727
LJ           2.54251        -5.63359          3.2406
LJ           5.24643         2.73319         3.21704
LJ           -1.6589         5.60471         2.83898
LJ          -5.72447        0.891037         2.67498
LJ          -5.46565         -3.0776         3.39223
LJ           6.25398        -3.50328         2.77632
LJ           -4.0133         1.85372         5.09573
LJ           1.29851         2.19906         3.01519
LJ          0.172581        -3.27392        0.440919
LJ           1.05666         4.98454        -4.22788
LJ           3.06076        -4.86347         3.96599
LJ            5.2861         3.92751         5.14585
LJ          0.590522        -5.57309        -4.13959
LJ           5.81657          1.3333         2.27606
LJ           2.34913       -0.851756       0.0778857
LJ          -2.03505        -4.89215        -6.02586
LJ         -0.255592       -0.774273         1.76021
LJ          -2.51147       -0.946136         1.94935
LJ          -5.82952         2.96891       -0.461754
LJ           3.79875        -1.21006        -1.22694
LJ           5.13956        -3.15986         5.72614
LJ           -3.6671         1.60861        -1.41151
LJ          -1.89265        -1.89015          2.3398
LJ          0.242024        -1.47135         2.37664
LJ          -4.82133         1.65057         3.63493
LJ           5.82408        -1.52267        -2.60313
LJ          -3.37881        -2.47585        -4.04957
LJ           3.58035        -4.36843         -5.9557
LJ           4.46964       -0.115441         2.01792
LJ          -3.58941        -1.08448         2.27263
LJ         -0.640915         2.82847        -4.62175
LJ           6.35858        -3.05292          1.8661
LJ           3.94297          2.3966        0.208619
LJ          -0.13986         4.64886        -2.24896
LJ          -1.68237        -3.99407         6.41802
LJ          -4.23419         1.63361          -2.297
LJ          -5.33014         2.53869        -3.79247
LJ          -5.21777          6.3503         3.64366
LJ           3.03257        -1.64178        0.125702
LJ          -4.26098        -3.08513         5.48918
LJ          -2.25701         5.20807         5.02643
LJ           5.31896        0.889591        -3.80154
LJ          -5.68105         2.06298        0.929439
LJ          -5.55748         4.14001       -0.452395
LJ           3.13148         -5.2976        -5.85619
LJ          -4.66998         2.15722        0.110022
LJ           2.72132          2.5582         3.93678
LJ           3.40515        -2.02814        -1.91886
LJ           3.99952         2.96977         2.25383
LJ          -1.16622        0.552437         2.20502
LJ           0.91956       -0.743024        0.333047
LJ          -2.27971        -3.23765        -1.49988
LJ          -2.47358        -2.21111         1.27313
LJ          -5.91016         5.47465          4.7406
LJ           5.13958         1.97813         1.40954
LJ          0.169044         -5.2153        -1.19804
LJ          -1.00983        -2.58283         3.07066
LJ             3.692         5.98977        -5.17621
LJ          -2.47342        -3.24278         2.93245
LJ          0.339021       -0.870736         4.55076
LJ           3.67987        -3.28945        -1.99036
LJ           2.08634       -0.346624       -0.924566
LJ          -0.76607        -1.52511          2.4648
LJ           5.16517        -5.53256        -4.01087
LJ          -5.91285         1.25158         1.63946
LJ        -0.0115864        0.877967         2.69518
LJ         -0.989563        -1.53674         -3.1838
LJ           4.40155        -2.24789        -2.66841
LJ          0.492575        -5.88624         5.20621
LJ           4.87955         5.94218          4.6339
LJ           6.11119        0.135297        -1.42267
LJ           2.98374         3.59202        -2.82785
LJ           3.01453         2.75093        -0.21623
LJ          -5.89753          4.0777        -1.52162
LJ           4.13071        -2.32853        -1.11666
LJ          -5.35206       0.0865157         1.52661
LJ          -3.89576         5.27234        -3.06938
LJ         -0.448736        -3.18108       -0.383923
LJ          -5.09087         3.59562        -1.84761
LJ          0.108178         1.36193         1.69981
LJ           2.56538        -1.39709        -0.99339
LJ           2.31849       -0.143959         6.38677
LJ         -0.515563         1.43328        0.664253
LJ           4.53346        0.915794         2.46413
LJ           3.59065         2.04296         1.39694
LJ          -5.76997       -0.664771        -2.77411
LJ           4.82683         1.71537         3.65535
