108
#Comment!
LJ          -1.72063         1.70092          -3.964
LJ           4.54775         5.17397        -2.08119
LJ          -5.18048        0.431658         3.05197
LJ         -0.819124        -5.19936         4.51559
LJ          -4.28491         3.72968           6.055
LJ           5.38537        -5.17784        -1.88075
LJ           2.50106         6.12617          1.0738
LJ           4.93893         5.28575        -3.67536
LJ          -2.97912         1.29966        -1.71602
LJ          -1.76598         0.54207        -5.88449
LJ             5.449        -4.15085        -2.48563
LJ          -3.31479        -5.31768         2.71735
LJ          -6.11174        -4.49802        -4.67017
LJ            1.9351         2.29773         4.12176
LJ           -3.6849         -3.9743       0.0307839
LJ          -4.58496         -4.7136         6.19435
LJ         -0.711006         4.54303        -5.49961
LJ         -0.777523        -1.19717        -2.87096
LJ           -3.2984         4.73257         5.75004
LJ           0.47373        -5.55687         2.87927
LJ           5.99947         5.26435          1.0459
LJ          -3.37502          1.9273         4.21218
LJ           2.33388         2.98666         2.09316
LJ          -2.07689          3.6197        -4.37221
LJ          0.887098         5.93238        -1.67062
LJ          -1.60457          5.6345         4.72371
LJ          -0.38105        -2.22901         1.66728
LJ          -2.77218         5.99225         5.60101
LJ          -1.59126         2.63768         2.96597
LJ          -6.39223        0.601238         3.48296
LJ         -0.999251         5.09767         3.23895
LJ          -6.09497         4.08553        -2.00918
LJ          -3.22527         6.42379        0.560771
LJ          -1.24529         -5.0816         1.36639
LJ           -5.7066         -1.9752         6.19537
LJ          0.436692         4.90724        -4.56346
LJ         0.0879348          4.0536         5.48287
LJ            0.7945        -1.27959        0.792464
LJ           4.91327         -2.9157       -0.752494
LJ          -4.19161         1.10934        -3.61077
LJ          -3.28234        -3.79544          4.1263
LJ           5.49267        -6.44323         6.41259
LJ           4.11294         4.08626         4.87685
LJ          -5.99233        -3.82332         3.94184
LJ          -6.14147        -2.85078         3.17712
LJ          -4.99172         1.14911        -5.95337
LJ          -6.19057       -0.979121        -4.14129
LJ          -1.71273         6.25316        0.823067
LJ           2.26227        0.249433         -3.6254
LJ           1.50223        -3.06326         2.75344
LJ           3.22966        0.501924         2.63434
LJ          0.943756         3.88178         5.82147
LJ           0.29643         3.31357        -2.37845
LJ          -2.42624         1.88415          4.7422
LJ          -3.51694       0.0194467         4.05576
LJ          -4.66862        -1.10521        -1.93321
LJ            2.7911        -3.63332        -2.58025
LJ           -5.5943        -6.42411        -6.03177
LJ          0.922602        -2.86839         1.51486
LJ           1.82533        -1.80097         2.97201
LJ          -1.50423        -1.70365          4.9656
LJ          -1.43753         3.80377        -1.93048
LJ          -2.55234       -0.437621         1.27108
LJ          -4.57476        -4.14719        -2.39817
LJ            4.2476        -5.56164        -6.24798
LJ         -0.336897        -5.31087         5.20671
LJ         -0.915602         3.08603        -5.60363
LJ           5.61517        -3.58992        -3.24844
LJ           -3.8987         -4.4521         3.90098
LJ          -4.53981          3.6496        -2.92136
LJ           1.87595         2.18475       -0.519473
LJ           5.41129        -2.92027          2.3826
LJ          -3.37972         1.68922         4.64047
LJ            1.6389         3.26501        -5.76006
LJ          -6.28642        -5.11923         5.14878
LJ           1.31067        -1.24621        -1.41603
LJ          -5.59422        -2.39024         5.73844
LJ          -6.15668         3.87506       -0.984477
LJ           5.26099        -5.14159        -6.16337
LJ           4.11508         2.04187       -0.447864
LJ          -3.61917        0.175496          5.9015
LJ         -0.229389        -4.95328        -6.04339
LJ       -0.00894648        -5.08274        -2.00114
LJ         -0.724915         3.62956        -3.20617
LJ          -1.51578         6.19931        -1.49198
LJ           1.56455        -6.01746         2.26877
LJ          -4.61286        -4.96947        -2.00437
LJ           3.33184        -6.19872         2.21194
LJ           2.32357          2.2695        -1.02382
LJ          -2.04919        -3.62186         1.97561
LJ           2.33568        -3.54258         -3.5881
LJ           -3.6024        0.412924         1.66194
LJ          -3.79561        -1.35744         2.21574
LJ           5.87713        -4.36099       -0.687392
LJ           6.10383        -4.65922        -5.46625
LJ           3.53044          1.5619         6.06984
LJ          -5.21766        -4.29099       -0.363134
LJ          -6.43922           1.239        0.102819
LJ            0.6931        -3.32343        -6.22654
LJ           2.58597        -1.13499         -1.4189
LJ           1.43078        -4.13579         1.78863
LJ           -1.5655          -4.612        -4.37682
LJ           1.07218         4.69613        -5.54226
LJ          -5.01423        0.594684         6.27106
LJ          -4.05794        0.439013       -0.240279
LJ          -2.11117         3.19956        -4.33811
LJ          -6.42235         -1.5348          2.7291
LJ         -0.732273        -1.98228         5.30791
