108
#Comment!
LJ          -1.39097        -4.88345        -6.37019
LJ          -4.56026        -6.30696        -1.26716
LJ          -1.33106     -0.00126935        -5.83092
LJ         -0.146368        -2.47859          6.3623
LJ           3.17077        -1.83246       -0.550224
LJ          -5.37971        -4.74478        -3.37445
LJ          -5.77984        -3.04405        -4.97259
LJ           5.23911        -2.93052        -2.24885
LJ           3.23638         5.25017        -4.87042
LJ           1.31082         3.32235         5.12058
LJ           1.11908         1.41653         3.26729
LJ          -4.92696        -5.17729         1.99409
LJ          -1.75223        -2.02565         5.88159
LJ            4.3655        -1.70208        -2.86752
LJ          -2.67034         1.95666       -0.703137
LJ          -1.93726         4.93872         2.17377
LJ           3.10094        -4.45751         6.40346
LJ         -0.828881         3.34467       -0.844506
LJ          -4.77298         6.24008        -5.48476
LJ          -5.71512        -1.71519        -1.92624
LJ          -5.79267          5.3115        -3.79425
LJ          -3.00151         6.17592        -1.50251
LJ          -0.80482       -0.506732        0.921067
LJ           5.70116         1.67594         4.74923
LJ          -1.40152       -0.353324         6.25718
LJ           -2.8522          2.3617        -2.94069
LJ           2.27472          4.5355         -5.6235
LJ          -2.89236         5.85438        -1.36967
LJ          -3.49936        0.945838          2.7732
LJ          -1.59744         2.85656        -2.82443
LJ           -5.2522        -2.47241       -0.343837
LJ           5.74086         1.11177         2.36201
LJ          -1.41909       -0.283483         4.93463
LJ           6.13966        -6.17716        -6.34988
LJ          -1.84868        -2.37077         2.63734
LJ          -5.40041        -2.62291         1.87851
LJ          -4.43549         2.41703        -2.15264
LJ           1.70503         5.83848        -3.10446
LJ           4.38374        -2.25995         -4.0986
LJ        -0.0211726        -4.44219         1.33213
LJ           2.22612         2.36162        -4.82694
LJ          -2.73448        -6.14886         1.54078
LJ           1.03985         -5.4096         2.40564
LJ          -5.60087         1.37527           6.339
LJ         -0.666391         4.66438         4.49565
LJ          -5.29002         5.69576         5.64532
LJ          -3.25168       -0.163476           6.176
LJ          -4.67096        -1.26959        -2.15484
LJ           2.31057        -5.81284         5.47087
LJ           -4.0023        -1.80108        0.310157
LJ          -3.15351        -1.07156         3.73037
LJ          -2.08919        -1.95103         1.77995
LJ            3.3693        -1.64106         3.83651
LJ          -2.11974        0.694424         2.52122
LJ           4.20757       -0.571859         4.66418
LJ           2.35804        -1.87741         1.79013
LJ           5.05038         1.98675         6.17081
LJ         -0.400924         1.34622       -0.860069
LJ          -2.08676        -1.46881        -5.22099
LJ           1.91493         6.32048        -6.35476
LJ          0.532367         -5.5644         1.77267
LJ          -3.54074       -0.822022         2.30866
LJ           2.82194         1.81989        -1.14186
LJ           3.07571         2.07083        -3.58966
LJ           4.87373        -3.86034         2.73538
LJ          -2.54657         3.47889       0.0781548
LJ           1.87641        -4.60136        -3.12062
LJ           4.03091        -5.90361         2.44754
LJ         -0.850124        -1.31162        -1.27996
LJ        -0.0368778         3.78191         4.14212
LJ           2.40894        -6.18913         3.58908
LJ         -0.342973        -3.03757        0.172895
LJ           6.44598        -4.23271        -1.63584
LJ           1.52805         2.41531        -3.13732
LJ         -0.121987         -5.6603        -6.17451
LJ         -0.577265        -5.80952         3.47122
LJ            4.7668        -5.88696        -4.30061
LJ           3.00615       -0.727714         5.47276
LJ          -5.48021        -1.82667        -3.56611
LJ          -2.70144          2.6207         -1.6937
LJ        -0.0753712        0.714638        -1.82709
LJ          -3.77838         1.09963         3.73116
LJ           4.71503        -4.42709        -4.25156
LJ          -4.71668         0.70839         2.48635
LJ         -0.933942        -3.89721       -0.761889
LJ           2.43465          4.6499        -5.50603
LJ           4.91406         0.64108         5.95999
LJ            2.1766         4.15528         1.56946
LJ             1.523         5.94988        -2.74839
LJ         -0.967019         2.49063         1.51128
LJ           3.23796        -4.19412         6.42456
LJ          -4.01565       0.0888487        -4.94677
LJ          -4.63435         3.01815         3.59053
LJ           4.46519        0.650389        -3.18995
LJ           3.04204          2.9815         3.26566
LJ           -1.2092        -1.03707      0.00982826
LJ          -5.59349         4.17302        -1.92686
LJ           5.74779        -3.11003         1.02951
LJ          -1.81408        0.418689       -0.230841
LJ           5.89388        -5.49379        -4.40359
LJ            6.3745           -2.72         6.12739
LJ          -5.08605      -0.0194599         5.37547
LJ          0.314229        -3.48071         4.15516
LJ         -0.983585         3.34172        -4.55542
LJ           6.21854         3.53803        -2.37375
LJ          -2.61558        -5.37827        -1.40564
LJ          -0.08929        -5.94287        -4.92493
LJ           -1.2536         -6.2709        -1.37657
