108
#Comment!
LJ          -5.79227        -5.46287        -3.64769
LJ          -3.06076       -0.106827        -3.77638
LJ           -3.2636         -1.8502        -1.63118
LJ          0.338774        -5.48886        0.245223
LJ         -0.106735        -2.67201        -3.11957
LJ           2.69266        -3.93075         6.40512
LJ          -1.80935        -2.66049       -0.153869
LJ         -0.404689        -1.78707        -2.68528
LJ           4.80337        -2.44926        -4.79375
LJ          0.832098        -2.10439        -2.58145
LJ            2.4956        -5.30871        -5.10176
LJ           2.77631        -4.11932         -1.5183
LJ          -4.18983       -0.310706       -0.752787
LJ          -1.86718         1.31235        -3.76149
LJ          -2.21764         1.37481        -1.78034
LJ          -3.43381        -4.80553       -0.865471
LJ          0.550095        -1.36853        -3.29264
LJ          0.118175        -1.28692        -4.18773
LJ         -0.983808        -0.63654         -1.7761
LJ           1.15414       -0.917027        -1.89208
LJ           1.03969        -2.18634        -3.65295
LJ           1.92437       -0.444435         -3.9142
LJ           2.70791         1.26542      -0.0587456
LJ           4.73185       -0.510194        0.197978
LJ          -4.32477        0.441566        -4.92615
LJ          -4.74312        0.798648        -3.80722
LJ          -3.53252        0.641625        -4.26342
LJ         -0.670119         1.33523        -4.14458
LJ          -4.55309         1.27417        -6.36223
LJ          -4.00745         2.29711        -5.77239
LJ          -2.02903         2.02572        -2.90259
LJ          0.869149       -0.220827        -3.19316
LJ           1.82504        -0.27705        -2.83807
LJ         0.0953536         2.00006        -4.11241
LJ        -0.0464814         4.23414        -2.46965
LJ            2.7476        0.840603        -2.23259
LJ           -1.5473        -6.24074         1.16964
LJ         -0.564933        -2.28732        -1.84049
LJ          -2.56658        -6.20871        0.745043
LJ          -1.89718        0.221377       0.0948727
LJ          0.953271        -2.64688       -0.563769
LJ          -1.94255        -1.11612        -3.62279
LJ            -4.093        -2.41189        0.780758
LJ        -0.0643805        -2.59796       -0.126395
LJ          0.423036         -2.1193        -1.53852
LJ           5.57077       -0.050612        0.725243
LJ           2.32773        -1.02773        -1.51268
LJ         -0.942559        -2.77931         1.25544
LJ          -4.56009        -1.40155        -2.90917
LJ          -3.05596        0.539359        -1.07291
LJ          -5.72564         1.70137          1.0584
LJ          -5.93596      -0.0122619         1.48748
LJ           1.18318        -5.22911        -4.44243
LJ          -1.62113         2.59826       -0.744914
LJ         -0.709523         1.07484        -1.08146
LJ          0.231139        -1.28229         2.12877
LJ          -5.09054        -2.17823         1.44423
LJ           3.88002        0.800245        -2.03222
LJ          -1.73144         -1.5857        -0.75751
LJ           -1.4541       -0.525611       -0.640756
LJ          -3.90562         3.62869         1.71968
LJ          -2.00476         3.30304        -2.91587
LJ           5.92181         5.21032       -0.422786
LJ          -3.36353        0.017361       -0.023395
LJ          -2.62384        0.813884        0.610461
LJ         0.0320887         3.83435       0.0588873
LJ          -1.36278         4.47867       -0.630487
LJ          0.729807         1.72465        0.265897
LJ          0.951611       -0.169115        0.215025
LJ        -0.0530187         5.22599         1.09761
LJ          0.244496        0.570913         1.93286
LJ           1.77252         4.96292       -0.503128
LJ          -1.43635        -1.49869        0.738894
LJ          -1.93277        -1.09339         1.84449
LJ           -3.0614        0.686122         3.63439
LJ          -3.52269        -4.40703        0.806296
LJ           2.40843        -5.24935         4.65442
LJ          -1.73697        -3.40127        0.857253
LJ           0.55773        -2.03138         4.30305
LJ          0.731255        -2.75074         1.11257
LJ          0.727294        -6.15218         2.45148
LJ           3.49793         -1.4916        -1.40015
LJ             1.663        -3.13484        0.286608
LJ           1.59972         -3.7284         1.42502
LJ           -3.7626        -3.42184       -0.113598
LJ          -4.27822        0.741957       -0.349829
LJ          -1.11223         1.01078        0.502945
LJ          -2.35664        -1.09072        0.378664
LJ          -4.25888       -0.190886         0.49981
LJ         -0.639639        -0.89019         3.11214
LJ          -2.22935        -1.63608         2.99454
LJ           2.93601        -1.05936         6.07992
LJ          0.942045        -1.53596       -0.234305
LJ            2.9427         2.04155        -1.11779
LJ           3.01604         2.53312         1.85388
LJ           2.06196       -0.166147      0.00607946
LJ          -3.91909         1.05581        0.786621
LJ          -2.77291         1.88542        0.202123
LJ          -1.14138       -0.803008         5.63947
LJ          -2.18988         1.49488       -0.591506
LJ         -0.782411         0.31149         1.31645
LJ          0.888644         4.23668        0.535664
LJ       -0.00837615         1.02489         3.57613
LJ        -0.0329339      -0.0372144         2.67251
LJ           3.24767         1.07022         1.16126
LJ           2.56036        0.278159         1.73034
LJ           1.65066        0.773911         6.04485
LJ           3.50252        0.683147         3.06747
