108
#Comment!
LJ           1.98874        -1.68177        -3.59299
LJ           5.93046        -4.35969         2.74568
LJ           5.53371        -4.24077        -1.48892
LJ           3.51968        -4.81718         4.24046
LJ          -1.89506          3.0836        -5.91807
LJ          -1.27277       -0.852746        -2.45079
LJ          0.561955         5.72921        -2.73169
LJ          -5.55194       -0.380302       -0.148879
LJ          -5.18184        0.888261         -3.8206
LJ          -4.42669        -1.79595        -5.49967
LJ          -3.88959        -5.07473         4.12599
LJ          -2.17685         4.68993         1.09474
LJ          -2.95239         4.76457        -4.41602
LJ          -5.95938         5.64049        -3.50815
LJ           4.13049         6.06526        0.138278
LJ          -4.29098         3.77865        -1.02021
LJ          -4.12091        -6.36744         1.94022
LJ           3.13406        -1.46498        -3.94401
LJ          -2.83861        0.850545         2.83086
LJ          -5.91773        0.443637         5.90479
LJ           2.62567         1.25897         5.88207
LJ          -5.34454         5.68749         1.04856
LJ           3.68075        -2.48959         4.19386
LJ           1.18341        -2.72382         3.29504
LJ           2.86948       -0.118841        -6.02197
LJ           -5.7923        -4.09707        -3.36362
LJ          -5.89332        0.176179        -2.49956
LJ          -2.20145       -0.657058         2.66383
LJ          -4.82584         6.16321        -5.16807
LJ          -6.05602        -4.06866         6.35825
LJ           4.61981        -4.85765         -5.2181
LJ           0.19659         1.97856          3.8972
LJ          -2.69298         4.94809          3.4557
LJ          -3.64304       -0.370293         3.76465
LJ         -0.671505        0.261781        -1.36797
LJ           6.23019        0.783501       -0.698726
LJ           2.50276         4.25249      -0.0284197
LJ          -4.73259          1.3389         5.14501
LJ           1.37488        -4.51185        -1.93576
LJ           1.24762        -5.19993        -5.72686
LJ          -2.82793        -3.05707         4.54193
LJ          -2.56821        -4.88192         4.85338
LJ          -5.57994        -2.20821        -3.78311
LJ           3.32547         5.01535         -3.4245
LJ           4.54874         1.84494         4.42336
LJ           4.95763        -5.73669        -2.51122
LJ          -2.47017         6.33296        -4.59296
LJ           3.81208        -6.04136        -4.57883
LJ            1.3316         5.50626          6.0889
LJ           5.72877        -1.38462        -4.46214
LJ          -3.13531        -4.02126         5.63544
LJ           1.41772        0.906709        -1.65024
LJ          -5.28383        -3.05699         4.20721
LJ           3.63917         4.00682       -0.876389
LJ           6.13972         2.44685        -4.08879
LJ          -5.88825        -5.84241         4.35081
LJ          -5.35354         4.83973         1.58516
LJ          -6.41769        0.708512        -2.80247
LJ          -1.83743        -2.16859         3.15141
LJ          0.819581         1.50332         6.36334
LJ          0.790211         3.04064        0.887329
LJ           6.25476       0.0340867         3.37857
LJ           6.30537         4.99013         -6.0932
LJ          -5.77576         -5.4521        -5.28209
LJ           3.55821         2.54356        -1.31689
LJ           4.79707         4.87332        -3.47602
LJ          -4.24275        -4.83284       -0.617974
LJ           1.17417        -5.74524       -0.552808
LJ          -1.98261      -0.0403488        -2.68476
LJ         0.0416159         -2.2256         4.80536
LJ            3.1558         3.53855        -5.33368
LJ         -0.284099         3.68133        -1.50245
LJ          -2.63761         -2.4836         2.18987
LJ          -2.76497         -3.8456         4.27959
LJ         -0.803076         3.46726         1.37428
LJ          -1.42733         4.88471         6.38614
LJ           2.59378       -0.296906         2.37237
LJ           3.13977         5.75371       -0.512496
LJ           2.51819        -3.22089      -0.0156631
LJ           2.64671         5.55459         1.89295
LJ          -3.57556         -1.5981       -0.274385
LJ           2.11379       -0.209127        -2.19915
LJ          -3.39997         1.17947        -3.06236
LJ           6.05477         3.71671         1.23071
LJ           3.62625        -6.11212        -1.39677
LJ           4.55759         4.45355        -4.20985
LJ           3.84024         2.37433         5.79097
LJ           4.23139        -4.59035         3.53982
LJ             4.061         4.84597        -3.59836
LJ           -5.6201         3.60157        0.365184
LJ          -4.23748        0.709245          5.0881
LJ           1.06699       -0.722454        0.623592
LJ          -2.34728         1.46577         2.38319
LJ          0.298497         5.97936       -0.894528
LJ          -3.06537        -5.23449        0.381509
LJ           4.36196        -2.91928          1.6693
LJ          -2.10748        -2.05188        0.993194
LJ           1.36427         5.23446         3.36995
LJ          -4.64042        0.432206        -2.25856
LJ        -0.0592088        -4.75611        -5.24045
LJ         0.0495542       -0.404622        0.929521
LJ            1.6973        0.741753        0.703896
LJ          -4.70603        -5.34252        -5.28507
LJ         0.0229255         3.72783          1.1516
LJ          -6.28259         3.96271        0.838126
LJ           -2.0015          1.5124         5.54955
LJ           4.25944        -2.71909        0.731292
LJ           5.58828         5.07893        -1.15374
