108
#Comment!
LJ           1.70032         2.62247        -4.51562
LJ           -5.8237        0.702008        -4.65312
LJ           6.39702       -0.228227        0.120908
LJ           2.89386         5.80476        -6.10196
LJ           2.86864       -0.549885        -2.09548
LJ           6.44141         3.50379         1.40318
LJ         -0.463279        -2.03651        0.837415
LJ           1.25536       -0.267107        -3.79055
LJ          -3.97428        -5.37309         5.93187
LJ         -0.866801        -4.28811        -5.10148
LJ            1.9877         4.11534        -5.48781
LJ          -6.11639         6.38736        -1.50362
LJ           5.34785        -1.44232      -0.0401588
LJ          0.850819          5.8957        -5.02663
LJ        -0.0127847          4.2857        -2.63365
LJ          -4.61787         2.54361          1.7175
LJ           4.35458        -1.35489        -4.50535
LJ        -0.0823292        -1.77177         5.95254
LJ          -3.08737         -0.9475        -1.94739
LJ           3.89411       -0.757186         1.20912
LJ         -0.689386        -3.18078        -4.23477
LJ           2.08414        -3.81728          4.8485
LJ           4.45967         2.63121         2.82869
LJ          -3.45622         2.99689         3.71989
LJ          -5.97185        0.434568         3.90495
LJ          -5.55065        -1.40833         4.88062
LJ          -6.09213        -2.25534         5.53082
LJ          -3.02384         3.56504         4.90729
LJ           3.41253         2.12454         4.42712
LJ           2.86071         5.27313        0.708687
LJ          0.479554         5.20743        -4.19062
LJ           2.49945        -3.90034         6.10282
LJ           5.30447         1.93845         6.12905
LJ         -0.879801         5.61894        -4.84234
LJ           5.02121        -1.97854          5.2588
LJ           3.63519       -0.547464       -0.224777
LJ          -2.71305         5.67737         5.24061
LJ          0.414057        -1.00332         1.07186
LJ           -2.0157         1.43075         1.26406
LJ          -5.56941        0.969259        -1.05894
LJ           2.55688        -1.52838       -0.849361
LJ          -5.91004        -2.52245        -6.43857
LJ          -5.40822         3.75796        0.248354
LJ          -1.21053        -2.92997        0.904944
LJ          0.763973        -2.47444        0.272106
LJ          -4.92173         1.95755         3.23324
LJ           3.96603       -0.346779        -2.45378
LJ          -2.61893        -2.65079        -1.90335
LJ           5.07015         -3.5309        -4.95739
LJ           5.57043        0.102226       -0.416052
LJ          -5.53217        0.587884          2.7359
LJ           1.51406         1.99735         -6.3007
LJ           4.65119      -0.0691239         4.25712
LJ           6.28668         1.46701       -0.241123
LJ          -1.32751         3.87498        -2.62025
LJ          -1.09881        -2.95327         6.01771
LJ          -2.61103        0.133237        -3.76206
LJ          -6.11394         1.47961          -3.904
LJ          -4.26207        -5.25584         2.20153
LJ           6.10808       -0.999237       -0.659631
LJ          -4.80433        -5.05645         5.15721
LJ          -2.13542         4.97735        -6.40768
LJ           4.58251        -2.55727        -3.01863
LJ          -4.39361        0.993751        0.801419
LJ          -3.81323         3.55669        0.364985
LJ           1.80492        -6.27951         4.43857
LJ          -3.64711        -1.17007        -1.14381
LJ           2.34059          1.8009         2.02593
LJ           3.02256        -2.60775         -1.0878
LJ           2.89917         3.62804          2.4021
LJ          -1.76019          1.0036         2.70225
LJ           1.35828        -1.57427        0.157312
LJ          -1.72966        -2.81794       0.0834758
LJ          -1.58447        -1.81883         1.04852
LJ          -5.12074         4.09854         4.48855
LJ          -6.05524         5.06965         0.89805
LJ          -2.57309           6.366        -4.79875
LJ          -1.89901        -2.46899         2.30911
LJ           1.56424         6.28036        -5.58569
LJ         -0.665487        -3.44811         1.92464
LJ          0.308444         1.12213         4.39084
LJ           3.74112        -2.42619        -2.05725
LJ           1.72364        -1.93403        -1.59866
LJ          -0.80691         -2.4247         1.91629
LJ           6.46006        -4.79975        -2.86447
LJ          -5.90848        0.705094         1.40862
LJ          0.884407        0.805641         1.98658
LJ         -0.757445       -0.586708        -2.34948
LJ           4.72258       -0.909992       -0.901364
LJ         0.0289741        -4.28027         5.30054
LJ            2.6249        -4.21219         3.89675
LJ           6.44994        0.674237        -1.06003
LJ           1.98621         2.05461        -2.10422
LJ           3.14267         3.91644         0.13603
LJ           6.32441         3.88539        -0.88238
LJ           3.96635        -1.72371       -0.507853
LJ          -5.42896        0.856666        0.191759
LJ          -4.62664         3.58277       -0.988726
LJ         -0.685647         -2.4488        -1.60991
LJ          -4.44971         3.42608        -2.31655
LJ         -0.968345        0.645757         1.82395
LJ           1.97262        -2.69767       -0.193216
LJ           1.56221       -0.679125         5.04104
LJ         -0.457071         1.14923         1.08941
LJ           4.22515        0.484647         1.92133
LJ            3.9571         1.56946          1.5724
LJ            5.0609        0.270516         -2.7402
LJ           4.31843         1.59835         2.72225
