108
#Comment!
LJ            1.0245        0.865464        -2.04339
LJ           5.47637       -0.664267         5.57067
LJ           4.93162         0.54727        0.189025
LJ           4.49047         3.55666       -0.810923
LJ          -5.57085         5.17064        -3.87942
LJ            4.7435         2.25398         1.33715
LJ          -2.48169       -0.479237         2.78022
LJ           3.64961        -1.30263        -3.70277
LJ          -3.72645         4.21863         3.05275
LJ          -3.59714        -2.78211        -4.97533
LJ         -0.638308         1.75285        -5.55311
LJ          -3.79259         4.70054     -0.00936334
LJ           2.29149        -4.76338       -0.308638
LJ          -1.96998        -4.46545        -2.62641
LJ         -0.934406         3.35038        -4.67324
LJ          -1.36622        -1.37469         4.42704
LJ           -2.8465        -1.52251        -5.33779
LJ         -0.214457         -4.7609         -6.2058
LJ          -2.27032        -1.96948        -4.32696
LJ          -4.33954         -3.7981         4.31767
LJ          -2.00614        -1.48664        -2.39004
LJ           3.58323         6.24184           2.245
LJ           5.78317         1.63623         4.40269
LJ         0.0995557        -4.75756         1.91247
LJ          -5.00489        0.495244        0.591081
LJ          -5.68774        -5.46173         1.33284
LJ          -6.37334        -4.17438          1.1527
LJ          -4.18628        0.507873         6.25729
LJ          0.418563         3.19303         1.63234
LJ          0.552871       -0.945232         2.49721
LJ           1.39843          4.7951        -4.47741
LJ           3.06349        -5.95766         1.61526
LJ           4.73845         2.35021         4.80253
LJ           1.96186        -4.14161        -3.28708
LJ           5.59799         3.05477         2.35024
LJ           1.48698        -1.15097       -0.719251
LJ          -3.03456        -5.97772         5.68129
LJ           -1.7547        -0.97411         1.90012
LJ          -1.77362       0.0718179         4.00327
LJ          -6.08522         4.31177        -1.85157
LJ           5.37215        -1.78259        -2.25028
LJ           3.13389        -3.92151         4.91129
LJ          -1.61716       -0.235539        -1.25678
LJ          -2.54639        -1.58963         2.72357
LJ           1.76127        0.484774         3.58787
LJ          -6.26454         1.13075          2.0681
LJ           -5.7526        -2.95477        -2.73552
LJ           -3.8483        -2.18554        -6.00551
LJ           3.53319         -2.7723         5.97051
LJ           4.37849        0.191163         5.93733
LJ          -2.83043        -2.68962         1.43377
LJ          -2.05761         4.42985        -3.71969
LJ          -5.17257        -4.93302       -0.736654
LJ           4.01938         3.94317         0.35126
LJ          0.887943         5.16004        -2.17399
LJ           -2.4335        -5.17904         6.15001
LJ           6.34692         2.81362        -2.47515
LJ          -4.62818          3.4783        -3.28646
LJ           5.66763         6.37335         2.34899
LJ         -0.137316        -3.71857       -0.347493
LJ          -3.68049        -1.16725         5.87239
LJ          -2.26612         4.87522          3.5114
LJ           6.31451         4.36699        -4.01534
LJ            5.9467         4.05685        0.932188
LJ          -6.14671         5.57521         0.19322
LJ           3.54279         5.90654        -3.30085
LJ           5.71417         6.09954        0.881738
LJ           2.16853         2.64211          6.0467
LJ           4.30126        -1.55765        -2.62078
LJ           4.02342         3.11617         1.73585
LJ          -1.02171        0.841171         1.39779
LJ         -0.857641       -0.991795         0.98314
LJ          -3.67385        -3.91119        -2.46713
LJ          -3.30027        -3.77994         3.58627
LJ          -5.71797        -5.55622        -6.34862
LJ           2.24637        -1.21189        0.549289
LJ           2.15769        -1.81095          2.3989
LJ          -1.54978        -2.02073         2.88934
LJ           5.80627         6.04931        -4.66173
LJ          -3.31966        -3.42028         4.71229
LJ          0.528576       -0.811474         5.57717
LJ           3.88308        -2.17303        -1.87147
LJ           3.24557        0.400629       -0.958244
LJ          -1.84299       -0.963171         3.46761
LJ           3.32382         6.30576        -5.11361
LJ          -4.39411       -0.463136         1.14146
LJ         -0.866786         1.51494         2.48577
LJ          -3.07721        -5.24278        -4.32477
LJ            3.5284        -3.10285        -2.63391
LJ           1.25622         6.32308         2.54118
LJ          -6.32385         5.11332         4.38375
LJ           5.58517       -0.614853         -1.6768
LJ           4.33455          5.0436        -3.56302
LJ           1.89874         1.68007       -0.842608
LJ          -6.32002         4.90858        -2.67006
LJ           4.71441        -1.70157        -1.36804
LJ          -4.59149       -0.573087         2.97269
LJ          -2.12309         6.18011        -5.72126
LJ          -1.30268        -3.32597        -3.02742
LJ          -5.41681         3.24898        -1.07186
LJ         0.0110289        0.485539         1.77355
LJ           2.41307       -0.476828        -1.04493
LJ           2.99565         0.37231        -5.20762
LJ         -0.422114         1.61108        0.919451
LJ           6.05012         1.93478         2.20838
LJ           3.25492         2.66691        0.680687
LJ          -4.46434        -1.90599         -2.6328
LJ           6.44844         1.57355         5.32304
