108
#Comment!
LJ           1.12162        0.782933         -2.0794
LJ           4.77475       -0.834297         4.89914
LJ           4.38866         1.00347         0.15272
LJ           4.26795         2.38572      -0.0252496
LJ          -4.84397         6.27541         -4.1667
LJ           4.45643         2.60485         1.10791
LJ          -2.78689       -0.279095         3.57799
LJ           3.98157        -1.64943          -3.754
LJ          -3.19598         3.40897         2.59617
LJ          -3.67308        -1.39577        -5.48567
LJ          -1.46742         1.27473        -5.40389
LJ          -3.50749         4.23581        0.549827
LJ           1.69665        -5.51976       -0.518336
LJ          -2.87089        -3.37808         -1.5557
LJ          -1.41802          2.3266        -5.01735
LJ         -0.734949        -2.01144          3.7863
LJ          -1.68626         -2.3724        -6.03747
LJ         -0.434797        -6.12149        -5.67874
LJ          -2.06968        -2.77409        -4.64394
LJ          -4.34031         -5.5745         5.49901
LJ          -2.31181      -0.0460398       -0.705582
LJ            3.9322         6.10225         1.55805
LJ           5.85957         1.46277         5.52529
LJ           1.08431        -3.37569         1.41781
LJ          -4.02172       -0.716754      -0.0975341
LJ          -6.15648        -6.25302       0.0722134
LJ           -5.9224        -5.09506        0.233943
LJ          -4.43968       -0.222224        -5.96311
LJ          0.545445         4.35574          1.4347
LJ          0.945974       -0.658119         3.08023
LJ           1.59241         4.72762        -4.60665
LJ           3.17376         5.86559        0.509226
LJ           4.84591        0.642623         4.63123
LJ           2.80914        -3.27091        -2.74235
LJ           5.44931         3.88787         2.15543
LJ           0.61217        -1.29483        -2.51062
LJ          -3.44855        -6.36518         5.14545
LJ          -3.00752       -0.153365         1.88363
LJ           -1.3676       -0.155931         4.80319
LJ          -5.60516         4.68959        -1.36601
LJ           5.52646        -2.50879        -2.28673
LJ           2.09293        -4.25144         4.50787
LJ         -0.698274        -1.33573         -1.2994
LJ          -2.57968        -1.22176          2.4154
LJ           3.16513         2.10496         4.61437
LJ           6.25541        0.807535         1.04617
LJ          -4.93139        -3.23167        -2.75979
LJ          -3.60685         -1.5314         6.34634
LJ           3.46392        -1.99287         5.39457
LJ           4.56682        0.316142        -4.88334
LJ          -2.37629         -3.1513        0.862359
LJ          -2.41722         5.38104        -3.42687
LJ          -4.47082        -5.93837        -1.98293
LJ           3.62499         4.78306        0.340143
LJ           1.45588         5.43302        -2.18279
LJ          -2.79016        -6.09798          6.0523
LJ           5.30465         2.95162        -3.02901
LJ          -4.44728         4.04994         -2.8413
LJ           4.98952        -6.38449         1.27753
LJ          -1.80771        -4.81085       -0.499586
LJ          -3.19595       -0.546242         6.35992
LJ          -2.54142         4.55905          2.6095
LJ          -6.09674         5.36154        -5.42656
LJ           5.07076         5.39521        0.971487
LJ           5.91341         6.26718          1.1798
LJ           3.41131          6.1518        -2.21369
LJ           4.72888        -4.79456        0.337954
LJ           1.87809         2.68015        -5.74018
LJ           5.08545        -1.34355        -2.68609
LJ           3.06674         3.29786         2.05874
LJ          -1.35017         1.26879         1.40553
LJ          -2.18132        -1.18926         1.01938
LJ           -4.9765        -4.67539        -2.84928
LJ          -2.71128        -3.77127         4.55712
LJ          -5.27373        -4.36669        -4.98153
LJ            1.5628        -2.49409          0.8543
LJ           3.16846        0.209277          4.1451
LJ          -1.91802        -2.06437         3.78187
LJ          -6.01955         6.34513        -4.04804
LJ           -3.0377        -3.75087         6.02731
LJ          0.561512       -0.712322         -6.2227
LJ            4.0482        -1.78895        -2.60917
LJ           3.42193        0.274961       -0.886273
LJ          -2.12864       -0.863631         4.17519
LJ           2.06638         5.42977        -5.35445
LJ          -4.17678       -0.623219         1.08635
LJ          -1.19047         1.52841         2.65633
LJ          -3.91684          5.8145        -5.35424
LJ           3.28246        -2.58407        -1.94115
LJ           1.73737         5.97116         1.03401
LJ          -5.86313         4.68075         4.35669
LJ           5.63044       -0.581842        -2.16984
LJ           5.98047          4.8415         -4.0514
LJ           1.82786         1.23748       -0.403196
LJ          -5.52605        -6.32508        -3.15408
LJ           4.87388         -2.0253        -1.63629
LJ          -3.94364        -1.16305         3.25571
LJ          -1.33437        -6.03766         5.68375
LJ          -1.32708        -3.57848        -4.26404
LJ          -6.32088         3.75983        -1.01657
LJ         -0.848595      0.00161536         1.53451
LJ           2.28104        0.162635       -0.557343
LJ           3.44037        0.617398        -4.52152
LJ         -0.560451         1.11138        0.399355
LJ           6.46009         2.47035         1.94101
LJ           3.76888         3.73139        0.948069
LJ          -3.95911        -2.84162        -2.57703
LJ          -5.87885         1.52997         5.89588
