108
#Comment!
LJ          0.764973        0.703898         1.37887
LJ           3.81141        -1.86346         6.37258
LJ           5.63398        -1.78561        -5.24188
LJ          -6.33285        -3.52567         3.18039
LJ          -6.30852        -5.61272        -2.65233
LJ          0.929493        -5.92003        0.660231
LJ           5.06255        0.973271          2.8468
LJ          -4.20821        0.748085         2.41275
LJ           2.29362         3.58689        -4.54105
LJ          -4.57336        -1.81807         2.26249
LJ           0.57637        -0.87768        -2.79519
LJ            2.6534         -4.7682        -1.64327
LJ          -5.76434         1.81715        -2.60802
LJ          -4.06331         4.07255         4.79493
LJ          -3.02296         3.63364         1.38132
LJ          -6.17457         1.95255        -5.32055
LJ           5.06188         2.65964        -1.56031
LJ          -4.09526         5.89902        0.151402
LJ           2.36425        -3.51626        -3.41129
LJ           3.92193        -0.88017         1.13634
LJ         -0.890505         4.59711         4.32222
LJ          -3.51647        -3.06751         2.34903
LJ           5.82711        -6.06994         1.77382
LJ          -1.79502         4.04302       -0.258323
LJ           1.50333         2.38754       -0.249426
LJ           2.00664         3.71284        -4.96039
LJ          -1.78494         2.76622         2.42488
LJ         -0.383864        -3.10063         -4.6986
LJ         -0.909546         6.36397          2.0383
LJ           2.32211        -1.41414        -3.07238
LJ           3.24797        -2.33523         5.28986
LJ          -5.79022         2.26243         1.66273
LJ          0.964405         4.37938        -0.46283
LJ          -5.29942         4.39844         -0.3118
LJ          0.275036        -2.24138         3.46952
LJ            4.9502        -4.61058        0.533575
LJ           3.69705        -1.05999         3.93264
LJ          -4.75444        -2.43296         4.96489
LJ          -1.33261          3.2218         2.86492
LJ            1.1096       -0.419974         1.29138
LJ           2.49375        -2.72749         -4.6075
LJ          -1.92812        -5.22924         3.32723
LJ          -3.15495        -6.25879        -2.17717
LJ         -0.814277       -0.189903        -4.61587
LJ           5.00743        -3.14256        -1.11681
LJ           3.74462        -2.53511        0.238948
LJ          -3.22596         2.81696         2.06037
LJ          -2.11565         1.31442          3.9515
LJ           1.90928         2.38298        -2.14098
LJ           5.90607        -2.59842         5.66478
LJ          -3.70031         6.19138       -0.930439
LJ           5.73285         4.49046         3.49712
LJ          -3.44903         5.39887         5.98311
LJ           3.35138       -0.932117        -3.48629
LJ          -4.90305        0.292646          3.8608
LJ           -2.1041        -1.66221        -6.36492
LJ          -2.98373        -4.84854        -4.33027
LJ          -3.38347         6.07721       -0.482664
LJ           4.03307       -0.483768         6.01872
LJ          -5.47172       -0.310484       -0.113525
LJ          -1.35968        -4.99618        -3.60336
LJ           3.46489         2.08208        -3.22776
LJ           -3.9391         6.18181         1.00913
LJ           3.82887        0.601027         5.54548
LJ          -2.26266         3.10357         -2.0363
LJ          0.747881         -1.3362      -0.0641408
LJ         -0.741272         3.96161       -0.998098
LJ           1.39915       -0.602693        -4.77124
LJ           5.73087       -0.578469         1.58826
LJ          -3.29004         6.12009        -4.06564
LJ          -2.40669       -0.384764        -4.20244
LJ           3.65193        -0.65333        -1.54376
LJ          0.683674          3.6062         2.01312
LJ           1.25414        -3.64094         4.45783
LJ           3.92874       -0.963265         2.39118
LJ          -3.85655        -1.97748        0.903986
LJ           5.97128        0.383185         3.38173
LJ          -1.94288         3.61568        -3.66346
LJ            3.0818         1.01348        -3.03879
LJ          -2.60528        -4.49675         5.37219
LJ          -3.25049         2.61585       -0.567061
LJ           1.65158         2.65022         5.07449
LJ          -4.39172          4.7893         1.98335
LJ          -4.93432        -5.25278         5.41059
LJ           2.33245         2.91359         3.56416
LJ           3.73847        -1.86781        -4.36189
LJ          -3.28843       -0.936021         2.77079
LJ          0.701334         -3.9273         5.35354
LJ          -5.47835       -0.883397        -4.55736
LJ           5.30342        -4.46921        -5.33649
LJ           2.51421        -0.58967        -5.98589
LJ           6.44454         5.22223         2.71469
LJ          -3.74338         4.76513        -4.72493
LJ          0.419561         5.85122        -1.15812
LJ          -3.00481       -0.854903        -1.05661
LJ          -5.29549      -0.0401638        -5.27182
LJ           1.28906        -3.88838        -4.35529
LJ          -6.44132         3.57662         3.05035
LJ          -6.16218         5.33305       -0.283637
LJ          -2.59632        -2.18421        -3.95274
LJ          -2.87852         5.58171        -3.50868
LJ          -6.07739         2.47572         3.65693
LJ          -3.99732         5.98563          3.1361
LJ          -6.44947        -6.34428        -2.09143
LJ          -1.07626         4.10228       -0.485021
LJ           3.28735        -2.28723        -5.62733
LJ           3.09662       -0.774972        -2.48332
LJ           2.59861        -4.57349         3.64465
