108
#Comment!
LJ           1.37459         1.51084         2.27933
LJ          -5.17908         4.30486         3.71622
LJ          -4.87612         5.23187        -3.65759
LJ          -4.11751        -4.46139         2.23063
LJ          -5.85981         1.78286         2.37107
LJ           1.91104         2.83791        -1.10802
LJ           5.07718        -4.29156        -1.16343
LJ          -6.04494         4.35532         2.89583
LJ           4.81128         4.30044         5.72064
LJ          -4.75799        -4.60949        -2.71208
LJ           4.54073         1.61982         2.13853
LJ           2.88427         2.44604         1.35234
LJ         -0.385675        -4.47108        -1.36505
LJ            6.2281        -3.78583         2.94346
LJ           3.30151         5.87971         1.07538
LJ            5.1408        -6.22087        -4.84884
LJ            5.4585         5.51583        -5.23404
LJ           5.81766        -4.65379         4.51163
LJ           4.27508        -3.84463         4.79585
LJ           3.52544           2.597        -1.82115
LJ           1.55317         5.35338       -0.333739
LJ          -1.53436         4.08307       -0.818227
LJ           -5.7861         4.36076         2.78004
LJ          -4.23294        -5.74224        -3.74971
LJ           4.84707         0.91553        -4.61488
LJ           4.65907        -1.03596         1.01691
LJ         -0.694311        -1.80039         1.26001
LJ         -0.191132       -0.815731         1.38796
LJ           5.25092        -5.64399         2.50246
LJ          -5.74853        -4.87892         -1.6723
LJ           2.35267        -1.09437        -2.22046
LJ           6.27715        -6.13058         4.08474
LJ          -5.53651        -5.23129         5.40709
LJ           2.98418         1.20262        -6.14248
LJ          -6.22245       -0.260072        -1.81357
LJ          -1.18649         3.01883        -2.32424
LJ           1.15489        -6.19438         2.74875
LJ          -2.80757        -3.50253         6.28755
LJ           6.11041       -0.922614         4.75277
LJ          -4.63278        -5.18788        0.138606
LJ           1.18327         6.13963         5.93306
LJ            2.8892        -4.37459        0.378872
LJ          -4.88937       -0.966146         6.18888
LJ           1.79503          -6.343        -1.93285
LJ           3.83726        -1.55529        -6.27146
LJ          -4.90207        -3.67039         2.55923
LJ           4.59222        -4.98266        -2.02213
LJ           1.42621        0.385613        -1.50436
LJ          0.744339        -3.11283         2.57471
LJ           2.03987         5.45359        -1.02457
LJ           1.21385         3.98836         -3.7153
LJ          -2.39954        -3.15601         2.64507
LJ           -1.3859         1.63698        -3.16951
LJ          -6.23759         2.07734         1.33513
LJ           4.92639         2.13159        -2.81525
LJ          -2.33873         1.42331         5.24105
LJ           2.18799        -5.77717        -2.05557
LJ           5.45018         3.62453        -1.98436
LJ           1.66016         1.71891         3.49035
LJ          -2.46022         1.80003        -2.23426
LJ           5.70164        -5.08155        -0.83083
LJ         -0.516853        -3.94628         3.42926
LJ          0.337642         4.45234         5.85348
LJ          -5.11837         -5.4022       -0.415038
LJ          0.163179         6.12589        -3.03724
LJ         -0.382722         3.62233         3.76805
LJ          -1.97837         5.78913         5.28847
LJ          -1.83696        -4.63421        -5.39932
LJ          0.995853        -5.10765        0.552753
LJ           3.81067         3.42587        -5.07692
LJ           2.38315         1.40391         2.89543
LJ           5.83878        -3.55103        -4.32542
LJ           1.51023        -4.12635         4.62594
LJ            -6.068         1.74171       -0.546746
LJ          0.966319        -4.92647      -0.0964852
LJ          -2.57982        -4.00327         0.23532
LJ           1.94149        -4.98314        -3.68856
LJ           1.57512        -4.11536         1.18586
LJ          -5.09797       -0.133998        -2.71548
LJ           2.34974       -0.194015         1.32024
LJ          0.835049         2.64579        -3.64986
LJ          -1.72918        -2.86687        -1.25317
LJ           3.70683         1.10616         2.67965
LJ           -4.3105        -5.57739         3.87255
LJ            1.3445        -1.90783       -0.189736
LJ         -0.701105        -4.89022        -1.78805
LJ          0.871362        -5.45451         1.70292
LJ           4.06276         4.99997        -2.46787
LJ          -5.56256         1.17395        -4.82538
LJ          -3.86865         3.99241         1.38273
LJ           4.36909        -4.72723         6.22608
LJ           4.56886        0.528809        0.578987
LJ         0.0771301         2.94462        0.794697
LJ           5.21304         1.64741         1.96788
LJ          -1.34632         3.89756         3.88261
LJ           3.10867        -2.80589        -5.47301
LJ          -3.19711        -5.12658        -3.29514
LJ          -6.44231        -1.85326         3.35795
LJ           4.22836        -3.10843         1.28366
LJ          -1.42795        -4.10231          3.8833
LJ            2.6508         6.24361         2.69362
LJ           3.67394        0.652458        -5.22224
LJ           1.67055         4.11792         5.75488
LJ         -0.857759       -0.940924         5.71499
LJ           1.18957        0.119123          2.6656
LJ            3.1458         -5.5528        0.173493
LJ           1.61554        -1.92052        -4.14552
LJ          0.571258         1.99508         4.77319
