108
#Comment!
LJ          -1.32803        -5.01438         5.61661
LJ           2.89941        -2.49334         5.83535
LJ          -4.23595         5.00742        -5.18949
LJ        -0.0892959         6.26403         4.40054
LJ          -5.76416          1.9688        0.658225
LJ            4.3821        -3.61258         3.70217
LJ         -0.459652         3.50496        0.953141
LJ           5.92992        -5.42173        -3.13509
LJ          0.477903       -0.549585        -6.38415
LJ           6.41182        -2.54215         4.96523
LJ         -0.682227        -1.84555         4.82328
LJ          -5.01876        -4.43599         4.98069
LJ           2.95109         4.51674         1.82084
LJ         -0.799554        -6.31695        -4.58142
LJ            6.1686        -6.28103         4.45359
LJ           2.00577         2.17154         3.33202
LJ          -2.84804         6.40374        -1.12218
LJ           6.40054        -6.03736        -6.45513
LJ           6.24532        -1.40652        -5.12787
LJ          0.769864        -5.42541        -2.53475
LJ           2.57053        -3.05102        -5.52353
LJ           0.66759        -6.33746          3.4194
LJ           -2.7509         0.87415         4.71891
LJ         -0.924635        -3.70615        0.682703
LJ           2.23606        -2.38567         4.70143
LJ          -4.22309         5.26982         3.60239
LJ          0.987953        -2.65904        -1.37061
LJ           2.37407        -2.90755        0.172204
LJ          -3.93564        -2.67906        -4.27452
LJ           1.42538        0.499429         1.92228
LJ          -2.45218         5.05383         2.90743
LJ          -1.93759         4.04099        -4.92964
LJ           3.44542         3.58936         5.52452
LJ          0.990702        -5.11467        -1.93417
LJ           5.34986        -1.02629        -5.52473
LJ          -5.50189        -3.89079         4.74804
LJ           5.90408         2.10245         4.90733
LJ          -1.54164          2.1622         4.09758
LJ          -5.59795        -4.15617        -2.74539
LJ          -4.00664        -4.63568        -2.37325
LJ          -5.76671        0.646981        -4.60136
LJ            3.6526         3.05993        -3.35646
LJ          -0.13508        -2.49598       -0.806042
LJ          -4.78279        -6.20098         4.23539
LJ          0.707829         0.55428        -5.53243
LJ         -0.909423       -0.847142        -5.79747
LJ          -1.91676        -2.98748         2.84574
LJ           6.42851        -2.29135         4.44005
LJ           1.13593        -6.22466        -1.85067
LJ           4.29802        -1.09656         4.00974
LJ          -1.12946         4.99092         1.30278
LJ            5.3733        -5.22339         3.18503
LJ          -3.86964        -4.71848        0.725255
LJ             2.968        -5.99569         5.44995
LJ          -6.23758         0.69782        -2.50526
LJ          -5.66459         1.12121        -5.95774
LJ           -4.7297       -0.225489        -1.43673
LJ          0.284274        -1.06673        -5.21969
LJ           4.93469         2.49267         3.64025
LJ           5.34791         3.19286         2.50207
LJ          -4.77994        -3.78104         4.97582
LJ        -0.0610256       -0.392094       -0.648846
LJ          -1.62695        -1.94738         6.15602
LJ          -4.20453          2.8973        -0.41633
LJ           4.41812         4.09376         3.98484
LJ           -6.0498         3.95426        -3.53965
LJ          -3.47924         4.14354         3.41151
LJ           1.36129        -3.01715        -4.88714
LJ           2.95536        -3.33732         1.80288
LJ          -4.57566        -5.05549        -4.15444
LJ           -2.4084         6.23763         -6.3633
LJ           5.51818         4.60641        -3.25545
LJ           4.72604        -3.55584       -0.530194
LJ           6.28948         3.55413        -5.55146
LJ           5.13859         6.02987         6.36384
LJ          -2.65271         4.40545         4.14089
LJ          -2.84124       -0.238193        -4.52819
LJ           1.70776          2.6662         1.52878
LJ          -2.55244         4.56726         4.04297
LJ          -3.24946         -4.8432        -5.78714
LJ           1.71756        0.602804         1.61488
LJ          -5.05414         6.33877         4.98552
LJ           3.74242         2.32693        -5.70559
LJ           -1.6882         5.29853         2.74552
LJ           1.36763        -5.84661         6.38838
LJ          -1.70687         3.72146         1.05842
LJ          -5.73023        -5.06729        -1.36397
LJ          -2.37571        -4.42083       -0.377945
LJ         -0.437937        -5.27096      -0.0148441
LJ         -0.140416        -2.94307         1.13626
LJ           1.89892         1.82766          -1.539
LJ          -2.09681         4.76302         5.57965
LJ           6.12643         -6.2005         1.20757
LJ           -4.5916        -3.75899         -1.0727
LJ          -2.67683        -2.20816        -4.92332
LJ         -0.639661        -3.31493         6.41496
LJ          -3.09809        -3.31057         2.97239
LJ           3.54625        0.736132        -1.16831
LJ           3.78302         4.41339        -3.70164
LJ           2.82533       -0.174415        -4.78764
LJ          0.350626         6.29371        -4.25132
LJ           -1.7919         5.68036         1.61807
LJ           1.18646         2.18423        -3.63785
LJ           6.05126        -2.09583           5.299
LJ           6.25923       -0.289306        0.465379
LJ          -1.08007         0.86821         3.08132
LJ          -3.41116        -2.07451         6.09575
LJ          -3.45699        -5.65098       -0.816495
