108
#Comment!
LJ          -6.39114        0.721808        -2.74282
LJ            4.8596         2.47882         4.07108
LJ           4.55372         3.74057         2.06703
LJ          -5.65044        -2.40243       -0.558666
LJ           5.83783          2.1649        -5.64732
LJ          -4.24554        -5.09703        -2.10197
LJ          -1.34928        -1.83564         5.61612
LJ          -1.74791        -5.87488         5.17229
LJ          -5.52619         3.34467        0.813012
LJ           4.90631          6.2993         4.31098
LJ           4.02389         1.41052        -4.56833
LJ         -0.969416        -2.84898         5.82578
LJ          -2.91458         5.60468        -1.23883
LJ          -6.22162         2.88829        -3.48653
LJ          0.783721         2.02499         -2.6238
LJ          -3.24432        -2.02778        -2.22316
LJ           2.15723         1.18788        -1.75199
LJ          0.979823         2.54346          4.0897
LJ          0.668878          5.5542         -4.4544
LJ           3.49243         2.93351        -3.49529
LJ          -2.29931        0.368007      -0.0892778
LJ           5.03627        -5.91336         1.02282
LJ           5.64971        -3.18061         5.15419
LJ          -1.66536       -0.821686         3.11178
LJ          -5.75998         1.27131        -4.28799
LJ        -0.0223514        -3.16532        -4.24199
LJ           3.98781         5.26495        -1.86947
LJ           1.35053        0.583566         4.68895
LJ          -4.58493       -0.629264        -2.02281
LJ            4.7869        -6.44848         4.36858
LJ           4.77863         1.37273        -3.30811
LJ           3.57954        -3.96812        -2.48661
LJ          -3.26504         4.87834         4.42166
LJ           6.17248        -4.13611        -5.02384
LJ           1.03854         4.97309        -5.93238
LJ          -3.50743        -3.03668         5.62034
LJ          -6.22645         2.22013        -4.05438
LJ          -2.17102        -5.89196          1.9754
LJ           2.90982        -5.42323         -1.8089
LJ            -0.444        -4.81272        -5.41171
LJ          -5.18731         3.57669        -2.03281
LJ           5.75075       -0.572574        0.745384
LJ            6.3992        -3.78994         5.09439
LJ          -3.61193         5.36277        -2.55737
LJ           1.67647        -5.56341        -0.48964
LJ          -4.65029        -3.62672         5.99947
LJ         -0.444124         1.74655        -5.45432
LJ          0.644602      -0.0486273         4.32714
LJ         -0.380454         5.73997        -3.59866
LJ          -2.81359         -5.5897         4.67667
LJ          0.199833        -5.04476         -2.5897
LJ          -6.31932        -4.05146         2.57145
LJ           6.19372         6.23361          3.3563
LJ           2.18272        -1.51833        0.465076
LJ          -2.06923        -5.21937         1.39586
LJ           4.47515        -1.27463         6.30724
LJ         -0.621329         -3.4537        -1.07479
LJ           3.78041        -3.90904         -1.2686
LJ          -2.69302        -2.49929        -1.78092
LJ           2.68483         6.13693       -0.274744
LJ          -4.31382         4.64866        -3.45984
LJ           3.60774        -1.05696         4.22452
LJ         -0.659043         2.27872         4.91333
LJ          -2.05346        -5.00276         1.08888
LJ          -5.27767       -0.711349        -6.14775
LJ           1.74913         4.99703         5.89286
LJ          -3.52188         -5.4297       -0.487897
LJ           1.60053        -1.07445         6.01143
LJ           2.51948         1.89628         1.12654
LJ          -1.98525        -2.40729         2.71433
LJ          -0.44661        -6.21218         3.58921
LJ          -2.38984           2.866        0.810958
LJ           1.99771        -4.74432         3.71526
LJ           1.21942         -4.2312          0.7209
LJ           1.87435        -3.58623         -1.6061
LJ          -5.68907         2.44696         3.66159
LJ          -1.79425         2.33886        -3.68442
LJ          -3.01074           3.449         4.94685
LJ          -3.40828        0.394608        -5.01878
LJ           5.45111         5.56424         2.96245
LJ           1.55797       -0.932674        -2.69191
LJ          -1.57123         6.13913        -4.76594
LJ           1.54344         4.68939        -5.21276
LJ            3.2892        -4.43127         2.97071
LJ          -6.08103        -3.02041       -0.508898
LJ          -2.99825         -5.9702        -3.01427
LJ           1.70442        -3.18417        -3.88916
LJ          -1.24283        -1.77646        -5.24936
LJ          -3.47733        -2.43314       -0.959025
LJ          -5.00541        -2.97326        -6.22463
LJ           6.43918        -2.08882        -5.33835
LJ            3.2656          4.7274        0.140881
LJ          -4.30674        -3.30277         4.22631
LJ          -4.04649        -3.95537        -3.42602
LJ          -1.79422        -1.68054         2.74952
LJ          -4.87872         3.74994         3.58189
LJ          -3.17445          3.4525          5.7422
LJ           5.78288        0.425861        -1.13957
LJ          -1.54632        -4.94167        0.655282
LJ          -2.19608        -1.20788        -1.10282
LJ           -5.8717         3.20295         4.80273
LJ           3.07874       -0.462243         2.69232
LJ           5.52096         1.33477         1.55888
LJ           2.68155        -2.97837        -2.82809
LJ           -6.2233         3.13325        -5.16935
LJ           1.21852        -2.72383         4.16633
LJ           2.37106        -4.61867         5.30986
LJ           2.93621        -1.37419         6.29023
