108
#Comment!
LJ           5.41125         1.52003         3.46898
LJ           -4.0667         -4.8609       -0.905957
LJ          -2.65792        -1.49206         4.30478
LJ          -2.04241       0.0214332        -5.27237
LJ           3.19959        -6.42134        -4.06593
LJ          -5.14928         5.31411        0.160863
LJ           5.43769       -0.595088        -5.06723
LJ          -4.14995         6.20141       0.0484001
LJ           1.94816         4.31331         6.38102
LJ          -4.50925        0.753315          1.0802
LJ          -3.16264        -6.44236         4.30155
LJ          -2.54408        -1.79605          2.9387
LJ           3.03693        -5.94202         1.76189
LJ           2.22739        -1.03042         1.47859
LJ           6.30892         1.30271        -1.20531
LJ          -1.99266        -1.22118        0.856539
LJ           5.27153        -5.95834         3.30684
LJ           5.43228        -4.88231        -1.33171
LJ           5.54733         -4.6296         0.21274
LJ         -0.409332        -2.29274        -1.58931
LJ          0.158253         -3.5194         2.28128
LJ            5.1892         4.36404        -5.93438
LJ           4.42079         4.88017        -3.62867
LJ           2.64135        -1.37031        0.449393
LJ          -1.02262         2.29345          4.9017
LJ          -3.74151        -4.77614         4.00957
LJ             2.803         4.98438        -2.80088
LJ            2.9998          1.9035        -4.77612
LJ           -3.5904        0.334412        -5.24418
LJ          -2.80696        -6.40598        -4.81607
LJ            2.7131         2.74741         5.66306
LJ           2.33424         2.26114        -3.56313
LJ           3.65255        -3.26735         4.27492
LJ           5.47508       -0.629753         3.83594
LJ           1.95778        -5.40268          3.3515
LJ          -5.60227       -0.243614         5.16596
LJ           1.86784         2.66268       0.0707508
LJ           4.82572        -6.17169          1.3316
LJ          -1.81795         4.41962         5.66258
LJ           5.06072        -4.13164         1.44026
LJ           1.71339        -5.62665          2.6218
LJ            1.2225         2.69275        0.685078
LJ           -5.6598         5.61568         5.57419
LJ          -3.35273        -3.22075        -5.46239
LJ         -0.232591         5.34838        -3.82892
LJ          -3.81409         5.07071         -3.6292
LJ             4.804        -3.77518        -4.11696
LJ           2.65781        -2.46231         5.76141
LJ          -2.42067        -3.29126         0.52866
LJ           3.24715        0.911022        -4.59124
LJ          -1.80179        -5.64373         -5.5065
LJ          -6.42398        -0.30602         -4.1459
LJ          -4.02453         3.45082         2.41436
LJ           6.19953         2.50285        -5.24439
LJ           5.95465        -2.87207        -5.86929
LJ           1.90761        -3.01108        -3.56822
LJ          -2.70358         2.25201        -1.47983
LJ           1.29103         2.32633         2.39151
LJ          -3.63191        0.334358        -3.88363
LJ           4.87507         3.53345        -3.96804
LJ          -5.68312          4.6448          3.7751
LJ           -1.5535         1.38339        -2.41803
LJ           4.84002        -4.21751         5.59489
LJ          -3.24695        -2.06707        -4.62196
LJ          -6.20781        -1.30751         4.04108
LJ           1.40554         1.85448         3.91523
LJ          -2.16002        -4.99087        0.407817
LJ            2.5283        -3.86965       -0.609474
LJ           -1.2387       -0.429793        -2.23207
LJ          0.923054         4.85493         5.15943
LJ          -4.86244         1.19744         5.98832
LJ         -0.507922         2.41887         1.41611
LJ           6.43023         2.05589         -5.5456
LJ          -4.15543        -2.77071         2.52427
LJ           3.58145         5.33484         4.93558
LJ          0.891693          2.0917         2.27272
LJ           5.39119        -3.31536        -4.32427
LJ          0.524977         6.04341         1.32451
LJ          -1.74206         5.26191        -6.35777
LJ           3.14803        -3.07556        -2.33868
LJ          -2.43735         4.24389         5.85929
LJ          -1.81247        -3.00989        -4.98364
LJ          -4.68882        -6.14449         1.35713
LJ           1.70017        -3.73319          5.7491
LJ          0.202552       -0.446555       -0.397633
LJ          -4.65311         2.23271         4.85823
LJ           2.71624         5.19676        -3.31032
LJ           1.76468         1.95129         1.50364
LJ         -0.709733        -1.14351        -5.83345
LJ          -3.14879       -0.200994         -4.9606
LJ           2.38036         2.24414        0.541224
LJ           4.09501        -4.87801        -5.94615
LJ           6.27754         3.84198         4.96099
LJ           5.67173       -0.217374         3.32874
LJ          -1.28349         5.82598        0.407231
LJ           2.91289         4.51517        -1.90458
LJ          -1.73155        -2.17216        -3.44574
LJ          -5.76919        -6.11312         2.37328
LJ         -0.917653       -0.740826         6.23002
LJ          -1.73883        -2.64728         -1.8996
LJ          -6.13647        -6.20284        -4.12045
LJ           -0.3529         3.93331        -4.90054
LJ          -6.03412         1.88437         4.31403
LJ           4.23672       0.0390418        0.701687
LJ           4.27193         3.74122       -0.752637
LJ          -6.16198          1.9836         1.99905
LJ           -5.8963        -1.57201        -5.00649
LJ          -2.95921         2.47322         5.68185
