108
#Comment!
LJ           5.97099        -1.60838        -5.72913
LJ            3.9696        -1.04018        -2.49724
LJ           2.67149        -2.39294         2.50727
LJ           4.43825         5.99352        -3.06559
LJ          -3.48272         -1.8147        0.188996
LJ            5.0265        -5.48099       -0.606034
LJ          -6.19897        0.879166         3.63932
LJ           2.71545       -0.376585        -4.25726
LJ          -2.27208         6.44139        -3.34913
LJ          -2.57641        -1.99203        0.718344
LJ          -2.19865        -2.00481         -6.0686
LJ           -1.5653        -3.90031         3.86558
LJ          0.480257         5.13912        -0.69573
LJ          -3.67747        -1.56576         5.38747
LJ            2.4689         2.09175         1.29994
LJ        -0.0165119         -1.7793         3.18741
LJ           1.95081        -3.29808         1.28919
LJ          -4.54572        -2.12366          6.1443
LJ          -2.92794          5.4345         2.87548
LJ           2.81551        -4.30637        0.873601
LJ           3.00965        0.991609         1.86227
LJ           4.27446        -6.18979         -5.3838
LJ          -4.76616         6.31004         3.70586
LJ          -2.28084        -5.59642        -2.27417
LJ          -5.20081        0.157757        -5.70754
LJ          -3.48209         1.31453         1.67529
LJ          -2.22624         1.45282         3.94829
LJ           5.49604         3.91869         2.69152
LJ           1.92687        -5.73794        -3.99298
LJ           5.40643        -1.53095       -0.984339
LJ            3.4055         4.39651        -1.85537
LJ           2.38344         3.14628        -6.32323
LJ          -2.42808         6.02088        -3.00866
LJ           -5.8393         1.07979         3.33467
LJ          -4.35396         0.33174      -0.0228438
LJ          -5.73814       -0.364413          -4.964
LJ          -5.51842        -2.93467         5.53772
LJ           2.03783         5.98192        -5.54222
LJ          -1.76701        -2.86543        -1.28596
LJ          -2.26842        -1.61312         4.99105
LJ           3.75003        -3.04099        -5.89846
LJ           5.35645      -0.0192022        -2.09317
LJ          -4.10296        -3.69148       -0.574219
LJ         -0.030708        -5.67742        -2.89133
LJ           5.24573         4.28932         4.86888
LJ           -1.7101       -0.665683         5.83097
LJ          -1.83007        -3.62958         5.45697
LJ           4.41247        -6.41461        -4.52251
LJ          -5.16204         0.57545        0.225458
LJ          -0.64222        -6.00067        -2.27363
LJ          -4.15745        -4.60434         4.61261
LJ           3.86853        -2.96232         3.44144
LJ          0.085856        -0.38418         6.25399
LJ          -5.50035         3.35516        0.850111
LJ           6.43641        -3.41293        -2.66592
LJ          -5.54776         3.38162        -2.59564
LJ           1.35735        -6.44564         4.98861
LJ          -4.77503        0.958098         4.18707
LJ           1.93263        -4.05261         2.01066
LJ         -0.206921        -3.14544       -0.331449
LJ           5.86646        -3.92977        -1.03605
LJ           0.67289       0.0751494         1.18895
LJ           4.62317         5.79745        -0.97089
LJ           1.88341        -5.69387          3.8583
LJ           5.94703        -3.00098        -3.76898
LJ         -0.621774       -0.570406         4.92097
LJ          -5.34117         4.06987         2.25912
LJ         -0.653337         5.39787        -5.97004
LJ          0.972312        -3.21147         1.40698
LJ          -1.96317         -4.5481        -3.95922
LJ            5.4383         1.16237        -3.56008
LJ          -2.26779          3.4335       -0.480564
LJ           1.04285        -5.58813        0.168117
LJ           -6.0667         4.33936        -6.05419
LJ           3.33231         2.96474         -2.2295
LJ          -2.47719         1.00816         1.21142
LJ         -0.527565         -4.8852         5.61973
LJ           6.44218        -4.97289         2.98528
LJ          0.700332        0.826261         4.68725
LJ          -1.09876        -6.30755         2.45387
LJ          -4.98958          -2.811         2.22562
LJ           3.56778      -0.0896522         3.24186
LJ            5.9755         -4.1137        -5.01422
LJ         -0.677524        -0.88878         4.16623
LJ          0.329304        -1.54539         5.68584
LJ           4.80837        -1.52313        -3.22816
LJ          0.137959         1.74861         5.65785
LJ          -2.17937        -2.61963         5.75074
LJ          -5.94986         1.89345       -0.422928
LJ            6.2669          6.2498        -1.59654
LJ          -6.10572        -4.51293       0.0514713
LJ          -1.95356         4.64656         1.94679
LJ           1.16497        -4.19348         1.33892
LJ          -1.37987         2.61076         1.75468
LJ           5.83357         3.19615       -0.549491
LJ          -5.72065          2.4851        -5.52741
LJ           2.77004          3.4353        -2.15128
LJ           5.03545         4.61689         6.44787
LJ          -2.29184        -1.50732        -5.76405
LJ         -0.319516        -1.21314         -6.3959
LJ          -2.47648         3.30668        -6.46135
LJ          -4.26242        0.235788         -2.1544
LJ         0.0864069        -2.71637         2.46754
LJ           1.19761         1.50517        -1.93399
LJ          -1.34551        -1.10891         5.63377
LJ           6.16486        -2.98185        -2.86651
LJ           5.69384         3.58556        0.456227
LJ           0.61745        -1.70581      -0.0145071
