108
#Comment!
LJ           6.28404        -6.17411        -3.82215
LJ          -3.49234       0.0252757        -3.76735
LJ          -3.29824         -1.8421        -1.09852
LJ          0.867398        -5.94403        0.951509
LJ          -0.21472        -2.37878        -3.36705
LJ            3.3605        -4.60558         5.46052
LJ          -1.69761        -2.37625        0.248761
LJ         -0.381908         -1.0686        -2.90849
LJ            5.6052        -2.20072        -5.22989
LJ           1.02665        -2.44649        -2.93244
LJ           2.93758        -5.75681        -5.76296
LJ           3.46222        -4.46932        -1.58376
LJ          -4.52286       -0.388948         -0.6361
LJ          -1.52725         2.31089        -3.85943
LJ          -1.95799         1.56055        -1.82107
LJ          -3.70429        -5.71963       -0.510037
LJ          0.605281         -1.6042        -3.39946
LJ          0.361052        -1.24744        -4.95356
LJ          -1.35972       -0.583812        -1.91148
LJ           1.51437       -0.444672        -1.50092
LJ          0.793363        -2.89242         -4.0311
LJ           1.89158       -0.953894        -4.78522
LJ           3.05079         1.75362        0.593078
LJ           5.20236       -0.431108          0.9797
LJ          -5.25295       -0.251978        -5.36214
LJ          -4.58022        0.162431        -4.29131
LJ          -3.97581        0.691613         -5.0678
LJ          -1.12158         1.73066        -4.90419
LJ          -5.35108         1.32671         6.18483
LJ          -4.92797         2.84465         6.08393
LJ          -1.68799         2.40199        -2.77338
LJ           1.29563       -0.692851        -3.67223
LJ           2.86958        -0.37097        -3.28747
LJ          0.174535         2.51219        -4.47233
LJ          0.321345         5.65434        -3.12607
LJ           3.04633        0.343493        -2.09889
LJ          -1.21494          5.9203         1.64038
LJ         -0.560828        -2.19279        -1.20088
LJ          -2.30477         5.95127         1.02089
LJ          -2.59495      -0.0323354        0.108147
LJ           1.08062        -2.51484       -0.351301
LJ          -2.48841        -1.46116         -4.0104
LJ           -4.5003        -3.68212        0.952869
LJ         -0.174099        -2.85753      -0.0381119
LJ           0.63663        -2.39819        -1.58205
LJ           6.34866        0.401223          1.0859
LJ           2.60712       -0.547459        -1.85028
LJ          -1.55661         -2.4016          1.3676
LJ          -5.09616        -1.76581        -3.20595
LJ          -4.07525        0.544217        -1.33952
LJ          -5.98761          1.9815         1.36573
LJ           6.09421        0.557849         2.28243
LJ            1.6507         6.37843        -5.00162
LJ          -2.19158         2.94886       -0.580841
LJ         -0.470529         1.68258        -1.47619
LJ         0.0791542        -1.73133         3.03377
LJ          -3.40311        -1.98635         2.89724
LJ           4.20915        0.816357        -2.26003
LJ          -2.42853        -2.38402       -0.472493
LJ          -2.27261       -0.393137        -1.03929
LJ          -4.09449         4.28545          2.5201
LJ          -2.08337         3.66976        -3.63321
LJ           4.98213         6.03739       -0.448072
LJ          -3.71573        0.136177       0.0291973
LJ          -2.79482          1.2555        0.980969
LJ        -0.0313004         4.10012        0.481287
LJ          -1.77642         5.58585       -0.797209
LJ          0.872343          1.4251        0.372089
LJ           1.41609       -0.615262        0.341468
LJ         -0.137699         5.41949         1.52195
LJ        -0.0540323        0.476113         1.69204
LJ            2.1236         6.09162       -0.495845
LJ          -1.12506        -1.47191        0.758846
LJ          -1.69323       -0.796317         1.70482
LJ          -3.38476         1.24016         3.78646
LJ          -3.84773        -5.02717        0.735195
LJ           3.25783        -5.68963         5.62534
LJ           -1.9216        -3.65282        0.829193
LJ          0.775386          -2.808         4.76756
LJ           0.93698        -2.87893        0.544654
LJ          0.685107         5.88551         2.95469
LJ           3.55406       -0.984831        -2.15951
LJ           1.78302        -3.24187       0.0611672
LJ           1.21825        -3.45284         1.44995
LJ           -4.2138        -3.62906       -0.674839
LJ          -4.15822         1.15291       -0.201498
LJ         -0.474816          1.1452        0.467064
LJ          -1.96789        -1.24976       0.0747406
LJ          -5.22358       -0.305841        0.251073
LJ         -0.639682        -1.03134         3.60079
LJ          -2.27219        -1.93087         2.88617
LJ           3.64153       -0.983265        -5.92801
LJ          0.787204        -0.95309       -0.563049
LJ           3.02306         2.12236        -1.33832
LJ           3.53916          2.8051         1.42866
LJ            2.4782        -0.10566        0.466289
LJ          -4.33707        0.550994        0.725915
LJ          -3.20331         2.05409       0.0108338
LJ         -0.736086         -1.3683        -6.16849
LJ           -2.7452         2.10812        -1.07818
LJ          -1.19475        0.539252         1.94054
LJ           1.26398         5.34195        0.644118
LJ          0.230528        0.484344         3.68221
LJ         0.0868108       -0.128173         2.70107
LJ            3.5525        0.656856         1.33606
LJ           2.53546        0.368159          1.6659
LJ           2.15985         0.94518        -5.53337
LJ           3.60604         0.65127         2.89998
