108
#Comment!
LJ          -3.05121         6.04214         5.20704
LJ             1.408       -0.441677        -1.16344
LJ           1.34266         1.69273        -1.59178
LJ          -5.52908       -0.524002        -6.39798
LJ          0.946603         1.18011        0.166408
LJ           3.55513        -4.52903         4.83346
LJ           3.99566        -1.49253        -1.81433
LJ          -4.04992       -0.973933        -6.37452
LJ           5.55217         -1.5875       -0.764563
LJ          -2.00739        -4.77098         1.90592
LJ          -3.43103         4.34245          2.3607
LJ           2.39065        0.689399        -4.20276
LJ          -3.69482        -5.49255        -3.24424
LJ           5.67132     -0.00504152         4.54141
LJ          -4.68552        -5.06336         -1.0018
LJ          0.777572         4.02406         1.38455
LJ          -2.84958         5.98804         -4.6974
LJ          -2.43233          -1.353         1.40639
LJ           1.57698          -4.656        -3.25951
LJ         -0.919301        -4.05981        -5.31319
LJ          0.506111         4.72422        -3.28225
LJ          -2.91584         3.40385        -5.17098
LJ           2.10319        -3.13398          3.8855
LJ           5.80418        -4.59927         1.67163
LJ          -1.42502         4.12807         3.55149
LJ           4.46352         4.39605         5.67954
LJ            5.3765        -5.93594        -3.19418
LJ            -6.353        -4.67975        -3.90541
LJ          -2.03188         4.30939         2.50759
LJ         -0.126645        -3.86833          6.2881
LJ          -1.12114         3.74466       -0.293877
LJ            1.6698        -2.71981        -3.89845
LJ           4.84333        -1.41758         -5.1109
LJ           6.36385         2.93111       -0.622223
LJ           1.27718       -0.644393         5.60587
LJ          0.781741        -4.03704       -0.801119
LJ          -3.27252        0.628062         2.60321
LJ          -2.02823        -2.61474         1.35937
LJ           4.64285        -4.05517         6.07562
LJ           2.38609         3.99056         6.35291
LJ          0.975478        -1.01639        -6.08338
LJ        -0.0099602         5.71949       -0.194856
LJ          0.372034         2.72213        -1.80296
LJ          0.568391         3.19783        -4.54745
LJ          -3.60542         4.04715        -2.32855
LJ          -6.41287       -0.733944         1.31659
LJ           2.85537         5.49614        -4.55413
LJ           -1.2609        0.918063        -3.18144
LJ            4.6547         6.27732       -0.283954
LJ          -2.85856        -2.32641         2.12985
LJ          0.399038        -1.61357          4.6806
LJ           4.10699        -3.68407         4.33048
LJ           3.23738         1.72371         1.09963
LJ            3.0376        -5.05504       -0.117002
LJ          -2.73325         2.76944        -2.11219
LJ           1.61683        -4.96597         6.09391
LJ          -5.25763        -4.37495        -4.15473
LJ          0.310515         6.29452        -1.15153
LJ          -5.43721          3.8317         4.03778
LJ           0.67793         1.55944         -6.3999
LJ          -2.68834        -2.55103        -4.54877
LJ         -0.936147         5.05994         4.13497
LJ            3.1328        -5.85049          2.3487
LJ           2.12459        -5.93342         2.43259
LJ          -5.85997         3.74929         -5.9252
LJ          0.697894        -3.46457         5.90728
LJ          -2.26336         -3.7266        -6.07386
LJ           3.41303        -2.50302        -6.36562
LJ           4.48432         1.47284         0.94459
LJ           6.14176         5.63773        -3.74464
LJ           5.54328         3.23909        0.349888
LJ           2.45708        -3.53454         3.89324
LJ         -0.990981        -3.66654        -3.80118
LJ         -0.288168         2.63035         2.01371
LJ          -5.33865        0.411914         -6.3087
LJ          -5.50313         1.77194         -6.1642
LJ          -3.40122         6.03878         -3.5621
LJ          -3.70951        0.760931        0.834457
LJ            3.1721        -4.34054         2.33289
LJ          -3.80948        -4.30502        -4.54909
LJ          -1.68736         1.26443         3.10046
LJ           5.87596         4.12426        -1.51995
LJ         -0.146629        -4.77367        -5.29395
LJ            6.3817         2.97099        -1.99996
LJ          0.492986        -1.46871        0.808677
LJ           4.18082        -4.96864         1.97591
LJ           2.07995         1.76369     -0.00184227
LJ           4.01602         4.61752         3.16521
LJ           4.79749        -3.73809        -1.40645
LJ           6.26321         6.42065       -0.610475
LJ           1.75744        -5.52843       -0.934286
LJ           1.14119        -4.97048         4.07348
LJ          -4.93796        -6.14929         4.63591
LJ            5.4474         1.07096         5.06669
LJ          -5.75115         4.49334         3.40805
LJ         -0.745337        -3.76768        0.291882
LJ          -2.81668         2.94914        0.150843
LJ          -2.43866         6.32233         3.27457
LJ           4.62973        -5.42809          2.1586
LJ           4.19259        -2.69803          4.0397
LJ         -0.910737       -0.616021         2.50409
LJ           3.37978        -2.87286         5.02687
LJ          -1.85825          5.8496        0.232737
LJ           4.58913         5.36263        -1.21666
LJ         0.0518932           5.475        0.993415
LJ         -0.788379         -6.3512          5.9271
LJ           1.13769        -3.49503        0.191096
LJ           6.26419        -2.85144         4.47668
