108
#Comment!
LJ          -4.27872         2.84146         1.15947
LJ           3.10694         5.38707        -4.82415
LJ           1.16051         6.31348        -6.00607
LJ           3.08109         1.06932        -4.88825
LJ           3.77846         6.15633        -2.78478
LJ            5.3964         5.87733        -5.88469
LJ           2.15307         1.44355         4.87713
LJ           1.99116         4.00347        -5.03067
LJ           4.11787        -5.73118        -4.37705
LJ          0.586084        -5.23118         1.92052
LJ         -0.626169         1.19371         2.27527
LJ           4.90103        -1.20416         4.88714
LJ         -0.428535        -4.09577         1.18104
LJ          -2.92562         5.99446         6.19738
LJ         -0.437039        -3.32461         4.90459
LJ           5.82342        -1.40321        -4.07771
LJ           4.29381        -5.39597         1.99209
LJ          -6.35392        -4.13783         3.31362
LJ           2.43823        -3.67378          3.0464
LJ           3.61691         0.15151         5.71725
LJ           5.11255         -1.8434          -6.269
LJ           3.29912         -6.3392         2.49407
LJ           2.10911       -0.184685         3.40961
LJ           5.72374         -2.3521        -3.67395
LJ           3.79145        -1.66464         3.14322
LJ           3.77872       -0.371224        -3.01232
LJ           5.17469        -2.42802        -3.45504
LJ          -5.93247        -2.18223        -1.64574
LJ          -0.61168        -3.31989        -4.19438
LJ          -1.53792         1.85648        -4.95128
LJ           1.05067         2.54472         5.64796
LJ            -4.801         2.51156        -6.21248
LJ         -0.338198        -6.34834        -5.82241
LJ           1.36185         1.42851        -2.17225
LJ           3.88972         1.20466        -5.70367
LJ          0.242613        -3.41731        -1.13691
LJ           1.64366         4.25729       -0.886629
LJ          -1.31382        0.960493         6.45877
LJ           -6.4455         3.63396        -1.87813
LJ          -3.77149        0.506764         1.47516
LJ           1.85914        0.532318         2.27916
LJ         -0.924028          2.6785          5.4967
LJ          -5.43648         2.22883        -4.25063
LJ          -6.42318         5.73611        -6.27945
LJ           4.72852       -0.258178       -0.654343
LJ           -3.5995        -5.54563         2.35219
LJ           -1.1124         0.98507        -3.11295
LJ           1.90986       -0.850163        -5.56346
LJ           0.59943        -4.64645        -4.99585
LJ           -2.7634         2.06389         5.88731
LJ          -5.01259        -2.82015       -0.828526
LJ            -3.602        -6.27992        -4.28016
LJ           3.28166        -3.16894         1.54497
LJ           3.95876         2.72662         5.18789
LJ           1.84681        -6.22034         5.23318
LJ          -5.54189         2.71624         2.45647
LJ           6.25521         1.26257        -5.91955
LJ          -3.68367        0.680025         5.66567
LJ          -3.27952         -2.9698         5.48792
LJ           1.90749       -0.538601        0.878362
LJ          0.333476         5.42175          4.6822
LJ           2.72878        -4.11932        -4.50172
LJ         -0.374466         3.33404         2.76637
LJ           4.21808         4.82498         3.74472
LJ           2.89341        -4.23715        -4.24241
LJ           2.51051        -5.11046         2.33605
LJ           3.40338         5.11585         3.88844
LJ           3.13966        -5.04841        -1.60344
LJ           3.51549         -3.8535           5.459
LJ           5.15381        -3.66287         -3.8738
LJ          -4.19664         6.17473         4.29134
LJ          -3.47626       -0.381457         3.13683
LJ          -1.73199        0.411134        -4.54488
LJ           1.96353        -1.42805        -5.48472
LJ          -5.95088         4.40517         2.76424
LJ           -5.5247        -1.12557        0.388916
LJ           4.36294        -5.27599        -3.83627
LJ          -4.86067        0.734128        -5.91787
LJ          -5.03855         3.89909        0.815028
LJ           1.28609         1.07945         1.92129
LJ          0.879657        -1.12185         2.27075
LJ          -2.95253        -2.86782         5.35322
LJ           -3.1771         3.07453         0.42579
LJ          -1.34671        -2.17562        -3.50783
LJ           3.13719         4.02723        -2.59442
LJ           1.71371        0.712337        -2.98876
LJ          -2.60696        -1.57099        -1.29795
LJ          -2.94209         -1.1651        -2.19287
LJ           3.99564        0.794235       -0.541959
LJ          -5.21576       -0.583341        0.975634
LJ          -2.49147         1.17245         2.96275
LJ           4.94157        -2.12744          1.5628
LJ          -1.20445        -1.82777        -6.23993
LJ          0.088515      -0.0709372         4.86731
LJ         -0.673134         0.72409        -1.33063
LJ          -6.38367         6.27768        -1.82592
LJ          -6.08101        0.172447        -2.57918
LJ           3.31817       -0.409564         5.65628
LJ          -2.61028         1.95555         4.22784
LJ           1.17926        -5.94709         3.61725
LJ           0.53133        -5.32059         3.52385
LJ          -3.33375          6.2393        -4.27204
LJ           -5.9488         5.84921         2.56482
LJ           3.28579        -1.35373         1.10317
LJ           -5.5239         5.20694        -5.10569
LJ          -4.81379         5.30316        -2.55904
LJ           3.71197        -2.56949        -2.43216
LJ          -4.50771          1.9742         1.73569
