108
#Comment!
LJ          -4.30804       -0.937027        -5.29125
LJ          -2.08103         1.22678        0.212546
LJ          0.154289        0.140723          3.1194
LJ           4.63643        -5.02427         4.96207
LJ           4.46699       -0.326211        -3.26584
LJ           2.14149         6.38512        -5.79187
LJ          -3.32403         6.22284         -1.1411
LJ           3.78587         5.45948        -4.78172
LJ           6.32368         3.52862       -0.204067
LJ          0.404771         4.51991        -4.42695
LJ           5.66537        0.489449        0.751126
LJ          -2.68008         2.53662        0.783592
LJ           5.46562          3.4122         6.35895
LJ          -4.13953        -3.67463        -1.24836
LJ          -2.48486         4.68388        -2.56479
LJ            4.2523        -2.69692        -5.09499
LJ          0.722432         -4.7308        -5.50373
LJ           -3.8214        -5.98305        -5.46159
LJ           5.11229         2.14723         1.69184
LJ          -5.48297       0.0728934        -2.50717
LJ           5.14506         2.80438         5.95984
LJ          -1.27542        -1.66634        0.651958
LJ          0.722879        0.134688        -3.80806
LJ           2.30432         5.57264         -6.4395
LJ          -3.60029         1.60963         1.87642
LJ          0.672199         0.72935        -3.03211
LJ          -4.83016         4.39503        -4.98617
LJ           3.63554         5.47552        -4.71157
LJ           0.69601         2.45521        -3.08704
LJ           -1.5557       -0.223611         2.10677
LJ           3.75926        -5.24096         1.91972
LJ           2.42078         5.29783         3.38662
LJ          -2.52681         2.37997         3.54509
LJ           2.62437        0.548353        0.552943
LJ           -5.6811        0.400913         4.57253
LJ           1.52813       0.0831668       0.0438107
LJ          -2.25198          1.9224        -4.90106
LJ          -4.30865        -4.37553        -2.26659
LJ           4.54836         5.38269         3.81439
LJ           1.95331        -1.15117         -5.5116
LJ           6.40679        -3.49024         6.40567
LJ          -4.66369        -1.08435        -6.15193
LJ          -3.65684         3.33033        -6.14983
LJ          0.565731       -0.687137        -1.15234
LJ           4.47121        -1.60814       -0.640824
LJ         -0.470685        -6.42375          3.5005
LJ         -0.262896         4.62847           2.709
LJ           1.87718         1.43258        -3.72513
LJ           -5.3099         6.33837       0.0821249
LJ           5.01556        -4.40602        -4.37491
LJ          -2.30112        0.642688         4.22955
LJ           6.19457         3.05696        -1.35005
LJ          -1.39292        -3.55144        -2.93302
LJ           4.85224         5.11229        -2.65476
LJ          -2.42464         3.52607         2.40216
LJ           2.01098         2.11175         4.67777
LJ           1.82468         3.97215        -3.53092
LJ           2.93196        -1.03065         3.98072
LJ           2.26638         5.63489         1.72109
LJ         -0.416843        -2.55878        -2.42371
LJ            5.6555         5.15477        -3.86583
LJ          0.278269         2.27116        -6.43815
LJ           1.43143        -1.63786       -0.843122
LJ          -4.09875         3.06301         3.31082
LJ           2.05716        0.906464          3.5468
LJ           1.30522        -1.04018        -5.43485
LJ          -5.21477         3.69098        -4.49857
LJ          -1.98728        -0.26515        -5.58206
LJ          0.424298       -0.417946         4.62315
LJ          -1.64432          1.7855         0.76836
LJ           4.69048          2.7696       -0.410703
LJ          -1.43828         3.42145         2.32317
LJ           -6.0341         4.54427       -0.416297
LJ          -2.72157        -4.45613        -5.81419
LJ           5.35078         1.68932         2.32159
LJ          0.782476         3.07832        0.189726
LJ          -5.03137         1.07625         3.56573
LJ           4.90283        -1.11663        -1.42626
LJ          -5.33386         3.29841        -3.11339
LJ           3.26412         1.50991         4.47444
LJ          -6.05106         5.48685        -6.39679
LJ           6.44423        -3.49424        -4.47134
LJ           6.06374         6.13386         2.60669
LJ           2.98659        -5.49949        -4.20041
LJ          -2.99534         6.21889         3.93461
LJ           1.80266         5.48127          3.7663
LJ           5.64354         0.77288        -1.61468
LJ            2.7568         0.30423         1.16841
LJ           5.69308         4.48466        -2.20661
LJ          -1.06664         5.27158         2.57024
LJ           -4.6067         5.24827         2.94102
LJ           2.02956        -4.99465         3.51021
LJ         -0.809721        -5.72718        -1.08614
LJ           1.83052        0.681573         6.15547
LJ          -5.67482        -1.53289        -2.23788
LJ            3.1316        0.230489      -0.0487972
LJ         -0.366053        -3.99199         -6.2657
LJ           5.76283        -5.97055        -5.71554
LJ          -4.63983        -2.62747        -3.88807
LJ          -4.59497         1.07152        -2.02908
LJ          -1.46426        -5.71863         -3.7582
LJ           2.97579        -2.43685         3.32876
LJ          -3.08834        -1.46821         3.16857
LJ          -3.42083        -4.52208        -2.35788
LJ           4.05244         3.32013        -3.91899
LJ           2.94769        0.410199         4.68197
LJ           5.13511         6.21093        -2.26955
LJ          -2.47495         3.33912        -6.01738
