108
#Comment!
LJ         -0.492178        -4.00208         6.19004
LJ           4.89099        0.917356        -2.83132
LJ          -3.24131        -2.94786          4.2916
LJ          -5.04441         1.78879        0.356477
LJ          -5.92009         3.62992         3.18434
LJ          -3.94798         2.17789        0.162588
LJ          -1.16956         1.10514         -1.6001
LJ          0.624652        0.379203        -5.49635
LJ          -1.97971        -4.39005         3.71306
LJ           1.93862        -1.98535        -6.17525
LJ           4.74715        -1.29234        -2.12433
LJ           3.47721        -6.13719        -0.16582
LJ            3.3186        -3.89577        -0.72452
LJ          -3.29542        -1.10156         5.61422
LJ           3.86531        -1.46435         1.81519
LJ          -3.10824        -5.40576         4.53362
LJ          -3.29637         2.99579         3.20133
LJ          -5.64583        -4.81104         6.11881
LJ         -0.174275        -3.13535        -4.04694
LJ          -5.62562         1.84713         4.30531
LJ          -1.58508        -5.92916        -2.77004
LJ           2.98077          1.5005         4.54006
LJ          -5.26844        0.201132        -2.13548
LJ           3.95417        -1.25881          2.7902
LJ          -2.72392         6.01822         5.13125
LJ         -0.852862        -1.26623         6.44138
LJ           1.88051        -1.80079         4.15896
LJ            2.9528        -3.80471         3.68394
LJ          -3.43994         1.07451          2.3921
LJ           -3.2136         6.31237         6.45472
LJ           3.56746        -3.35823         1.36186
LJ           4.73498         5.03939          5.0054
LJ          -2.92426        -4.21118        -4.03065
LJ           0.39886         6.43789        0.314198
LJ           4.97142         3.84119        -2.57653
LJ          -2.99147          1.6368      -0.0524407
LJ          -4.39057         1.90063        -3.74776
LJ           4.29905        0.129692         5.94763
LJ           1.86292          5.2259         6.27346
LJ          -3.03665         2.83589         4.24657
LJ          -6.45273         3.06043         2.33951
LJ          -3.72771        0.473639        -2.12345
LJ           5.84945       -0.714883        -1.60132
LJ           5.62155          2.5548         3.25493
LJ           1.13228         4.57163        -5.14584
LJ           4.82894        -3.91064        -4.98957
LJ          -0.58009         6.19542          2.5127
LJ           3.96265        0.627322        -6.07284
LJ          -1.28194         6.34761         6.09188
LJ           5.61336         5.76357       -0.743445
LJ           2.31398         2.54336        -6.12967
LJ           3.46123       -0.377452        -4.84483
LJ          -5.03105         3.69453          2.7637
LJ          -6.03466       -0.971879         4.52477
LJ           4.75814         4.35574        -1.56637
LJ           5.43944        -1.41487         5.96632
LJ           5.88869        -4.52574        -3.83371
LJ          -1.14025         2.28489        -3.21628
LJ          -6.29139         1.54823        -0.17385
LJ          -3.81714        -3.90623         4.30213
LJ           4.91675        -3.75151         2.38948
LJ          -1.48755         4.37667         5.34527
LJ         0.0916215       0.0488446          0.8796
LJ          -5.11009        0.359936        -4.70009
LJ          -3.85055       -0.448498        -3.64691
LJ           2.00532        -4.15189         5.21718
LJ          -3.71503         3.95374        -4.56461
LJ           4.87168         4.22161        -4.75177
LJ          -4.91725         2.41503          1.5835
LJ         -0.435441        -3.66438        -6.39232
LJ          -5.05987          1.7278        -5.38544
LJ         -0.697729         -4.9376        -0.64829
LJ            2.7252          2.2281         4.70776
LJ           -4.3141         5.04247        -2.21364
LJ          -1.20919       -0.178336         3.11314
LJ           3.29741         5.80149         5.76138
LJ          -6.44866        -2.70723        -2.72758
LJ          -1.21456       -0.385145        -4.54175
LJ         -0.328127        -3.58106       -0.557616
LJ           5.87362         4.87732        0.637871
LJ           3.24112        0.594404         2.06524
LJ          -5.25003        -4.77877        -1.09503
LJ          -5.86077         -3.1997         -2.0649
LJ           3.76198         2.39389         1.87146
LJ           4.47857         4.34716        -2.14422
LJ           4.16584       -0.655374        -4.19235
LJ           -4.8576         5.85826        -4.96555
LJ          -3.66045         3.92598        -2.07544
LJ           5.49303        -5.74908         3.84633
LJ           3.37867        0.381073         6.40025
LJ          -1.80595        -6.04414         4.25185
LJ           4.64275         4.48059         5.99306
LJ           4.61085        -2.37885         2.31436
LJ           2.46227         1.83821         0.11604
LJ          -1.46578        -3.57153          3.7657
LJ          -3.62412         0.52939        -5.51878
LJ          -3.67395         2.81323        0.557763
LJ           5.70425        -1.40663          0.5043
LJ          -6.09825         2.26537        -6.00703
LJ           4.15096         3.98979         5.52732
LJ          -5.81926        -5.58297         3.39567
LJ           5.25372         -1.9002         5.27765
LJ           5.22971         5.11327        -1.78587
LJ          -1.12969         2.77862        -1.40916
LJ           1.33885          6.3592         5.45471
LJ          0.882375          3.8075        -3.59823
LJ          -1.94667         5.28956       -0.823124
LJ           5.78151         1.65097        -2.88945
