108
#Comment!
LJ           1.32662         1.78884        -4.35567
LJ          0.312178        -6.29886        -2.18335
LJ          -5.40605         3.79007        0.226928
LJ         -0.604093        -1.02033       -0.166333
LJ           5.79181        -3.73132         1.50777
LJ          -0.20449         1.93191        -5.50927
LJ          -5.96327        -5.06599          2.0911
LJ           1.71167        -2.41196         3.27344
LJ           5.50241        -5.15226         6.02759
LJ           2.92894          5.0786         1.24824
LJ          0.955388       -0.849663         3.85245
LJ           1.36801        -3.90517        -4.34592
LJ           3.61099        -6.40808        -2.71519
LJ           3.53997       -0.957654         3.94832
LJ          -1.38571         5.68996        -3.44637
LJ           3.50283        -1.39473         5.49992
LJ          0.200567         5.94485         4.74529
LJ           3.47557        -2.51165          4.9387
LJ          -3.73857         2.09265        -5.47813
LJ          -1.54742         2.38702         2.50964
LJ          -4.33327        -3.15089         5.05044
LJ           4.41833         5.42234        -3.44662
LJ          -1.47532         3.32339          3.9583
LJ           3.54371         4.37062         1.49528
LJ          -2.77672        0.809294         4.93682
LJ          -2.58826        -3.10254        -6.42216
LJ           5.31857       -0.991487        -0.46746
LJ           4.49576         1.72523         5.10961
LJ           5.04758         5.61968         5.35932
LJ          -3.94697        -1.40646        -1.37044
LJ           4.62919          1.6821        -5.91064
LJ          -1.72395        -4.31922        -2.47041
LJ           2.52496        -4.91837         4.99921
LJ          -5.15618        -3.50672         1.88857
LJ           2.51044         5.16187        -3.47972
LJ           3.25176        0.726203         4.66573
LJ           3.78784        0.165213        -3.29346
LJ          -1.21347        -1.60303       0.0361049
LJ           1.30328        -4.64705        -5.77728
LJ          -2.25332       -0.676095         3.13918
LJ           4.09826         5.67132        0.819819
LJ           2.98635         2.72315       -0.883699
LJ          -5.82454         3.15923         1.02416
LJ          -1.74485        -3.22514        -2.70187
LJ          -1.89562         6.13878         2.47306
LJ          -3.09035        0.269174         4.40598
LJ          -1.22404         5.97584         2.90882
LJ           2.89361         4.75649         6.25245
LJ           2.72652         2.32769        -1.20301
LJ           1.65121        -0.29194         2.31866
LJ           3.85776         3.36061         4.44915
LJ          0.477245        -2.23216         1.21854
LJ          -4.47201         4.75964        0.347838
LJ          -2.14314         4.55825          1.7972
LJ           3.62754        0.866049         5.22928
LJ          -3.24639         1.53237         3.95929
LJ          -1.59118          3.7613        -6.24585
LJ           3.80252        -5.95775        -2.74698
LJ           2.88263         3.91091         5.33602
LJ           5.16826       -0.574926         6.19261
LJ           3.76857        0.350715         2.46932
LJ         -0.700945        -4.49087        -5.04584
LJ          -3.95168        -1.31809          5.1996
LJ          -1.00109         3.57727        -4.48642
LJ          -2.35059        -1.48957         4.98498
LJ           1.26193        -5.57408          6.1096
LJ           4.92512         3.59676        -3.84791
LJ           2.16014        -1.06441        -4.39645
LJ          -2.55235         1.82954      -0.0423531
LJ          -5.77037       -0.671025        -4.73144
LJ          -5.05645        -2.42156         3.42918
LJ           -5.0845         -5.9687        -2.91125
LJ          -1.05474        -1.24517         3.62228
LJ          -6.45459         4.92507        -4.43564
LJ          0.572394         -3.4192         3.99781
LJ          -3.91398         5.88595        -6.38593
LJ          -1.36683        -1.83747        -4.18772
LJ           2.00429         1.91213        -4.54557
LJ           3.11759        -4.84837        -1.34801
LJ          -6.05146        -1.42273         5.17804
LJ          -2.58558        -3.43981        -6.41688
LJ            1.6721         3.39014         1.68846
LJ          -5.70764         6.23996         -2.9874
LJ          -1.41279        -2.90337        -4.92693
LJ           5.83689         2.72146          3.1199
LJ           5.17571         0.13789         3.97409
LJ           2.00843        0.497029        0.225192
LJ            3.2297        -4.01505        -5.49052
LJ         -0.953287        0.885517         3.02492
LJ          0.767952       0.0760894        -2.69248
LJ          0.540409        0.426918         4.03465
LJ           5.95143        -1.58073         3.14164
LJ          -1.74292        -2.41432         -3.2712
LJ          0.218626        0.260663         5.17788
LJ          -0.76873         2.56242      -0.0552562
LJ          -1.03684        -2.92265        -3.85871
LJ          -3.70089       -0.437829         4.47273
LJ           5.77178         3.90988        -3.90269
LJ           5.02463        -5.29472         2.30944
LJ          0.708724         3.06853        0.666303
LJ          -3.59009        -2.61763        0.880423
LJ           3.28216         3.62906        0.898608
LJ          -1.91642         5.18622        0.584909
LJ          -3.10622        -3.44923        0.759035
LJ           -5.8472        -4.15033          -4.093
LJ          -5.06753        -2.26304         2.92324
LJ          -3.43751         5.53996        -1.49835
LJ          -3.93108         1.52066         1.78473
