108
#Comment!
LJ          0.717022         1.25721         5.94874
LJ          -6.30146         4.80116       -0.889941
LJ           3.67435         -4.4287        -1.35542
LJ           2.36205         3.85871        -3.38431
LJ         -0.757197        -3.65027      -0.0731002
LJ           5.22915       -0.502874        -3.30177
LJ           4.87434        -4.96823         1.69332
LJ           1.78784        -3.12758        -4.99637
LJ        -0.0137627           1.537         2.36948
LJ          -6.22594        -2.65187        -4.00007
LJ           2.27563         1.79358       -0.672124
LJ          -1.17318         5.43998         1.62195
LJ           -2.6578         6.39812         1.16951
LJ           4.75926        -2.44165         5.11386
LJ        -0.0974641        -5.77189         6.15763
LJ           2.88906         4.89049        -2.75659
LJ           2.39787       -0.855381        -2.94218
LJ         -0.462116         2.92505         1.27689
LJ           -3.0866       -0.872218        -2.27731
LJ          -4.18111        -3.81034         2.02679
LJ         -0.745933        0.265591         1.47339
LJ            2.7166        -1.19103        -3.98698
LJ           2.99586         -3.8842        0.239393
LJ           1.12538        -3.05127        -4.04626
LJ           3.08452        -3.72127        -3.22392
LJ           -5.8039       -0.340004          1.7942
LJ           4.63585        0.883286         1.10827
LJ           2.70368        -3.48107        -2.14286
LJ            5.7122          6.4385         6.26713
LJ          -5.02031        -0.11331        -6.27553
LJ           3.39707         -5.3824         2.98249
LJ          -4.52334         -5.2778         -4.9568
LJ           4.10491          4.7435        -2.54801
LJ          -4.64683         3.56116         5.05719
LJ          -1.81627         5.07307         4.94143
LJ          -5.55423         5.56642        -4.49621
LJ           4.81742         3.83202         -5.4138
LJ           3.29341         -1.1376           1.618
LJ           3.01045         1.68239        -4.64285
LJ           1.79543          4.9438        0.317257
LJ         -0.860228         5.40585       -0.200334
LJ           2.11067       -0.778515        -4.97136
LJ           4.30026        0.995972         5.33048
LJ          -2.23073        -4.99212         5.07999
LJ           4.15478        -2.69738         2.11417
LJ          -4.12355        -2.76925        -4.49257
LJ          -4.60614         4.35519          5.4452
LJ          0.477572        -1.20756         2.37188
LJ           2.96842         3.78413         3.23863
LJ           1.11278        -5.52294        -2.43073
LJ          -4.34257         3.24487         6.41621
LJ          -6.06614        -2.52454          2.3419
LJ           4.78491        -2.56515         5.71016
LJ          -2.40446        -3.17143         3.80971
LJ          -4.05252         1.85335         4.99428
LJ           4.66907         4.34102        -1.34787
LJ          -4.77005       -0.320665         3.47304
LJ          -1.83517      -0.0941146         2.63992
LJ          -2.64701          6.2337         5.36164
LJ           1.16273        -4.61242         1.26907
LJ           4.43094        -5.40633         5.39429
LJ          -5.27297         3.21392       -0.466742
LJ           4.12727         2.65983        -6.31497
LJ           1.90516        -2.06896        -3.41621
LJ          -6.32599         2.85898         3.86287
LJ         0.0109528        -4.57916         1.46704
LJ           2.84074         4.00446         3.77973
LJ          -1.53279        -4.77843        -6.32537
LJ           3.45265        -2.30042         5.24909
LJ           3.88127         2.89593        -2.52348
LJ          -3.24953        -4.46115        -5.78698
LJ          -3.70476        -4.59393        0.520942
LJ         -0.370427        -2.41254         -1.6024
LJ          -4.16631         4.93733           3.756
LJ          -3.35278         3.82843        -4.37243
LJ           -3.5483        -2.40988         2.54073
LJ          0.711992         2.19139          4.1505
LJ           3.25774        -1.81516        -5.74506
LJ          -3.95054       -0.592758          5.3489
LJ           3.80673        -3.35639        -5.48719
LJ           5.62946         4.92868         -2.9266
LJ          -4.03259        -4.85141        -5.53399
LJ           2.60428        0.725841         2.58234
LJ          -1.34722          5.3746          4.0405
LJ          -6.29734        -5.99762         1.56676
LJ           6.04364         4.09738        -1.16848
LJ          -4.67373         1.59075         1.70826
LJ          -5.35858         2.13088        0.770026
LJ            1.6557         1.53177         4.83883
LJ           3.45667          5.8373        -6.32741
LJ           -5.7667        0.665641        -2.16804
LJ           4.79252        0.695084        -1.16146
LJ          -3.61035        0.436532         3.76134
LJ         -0.208152       -0.222399       0.0490565
LJ           1.56649         -1.6825        -6.00011
LJ           1.37283        0.768825       -0.265457
LJ           4.15687        0.638997        -2.52438
LJ           5.29767        -2.90321         1.50971
LJ           4.12892         2.87655        -5.66997
LJ          -3.06933         5.24292        -4.02357
LJ          -1.65849        -2.84343        -2.76312
LJ          -5.10512       -0.364962       -0.864551
LJ          0.655595         5.52677        -4.66799
LJ          -4.79775         4.39946        -6.17004
LJ           3.88032        -1.56334        -5.24054
LJ          -1.76239        -1.32449         6.04376
LJ           6.27632        -5.00364        -2.74858
LJ          -1.00542       -0.967954         2.27096
