108
#Comment!
LJ          0.420155         5.53841         5.35552
LJ          -1.50382         2.67824         -5.2367
LJ          -4.25342        -1.79086        -6.26088
LJ           4.66645         2.85649        -2.75985
LJ          -1.87686         -2.1428         6.23275
LJ          0.110597         4.57966         3.40357
LJ          0.816822         2.89414          3.1585
LJ           5.39604        -0.59604         2.10338
LJ           2.48147         -1.2614         5.03845
LJ          0.506071         5.69499         1.36761
LJ          -4.38901        -2.36671        -5.95926
LJ          -1.80401         4.32571         2.50914
LJ          -2.58527        -3.67603          6.2417
LJ          -3.30183         2.86442         2.64197
LJ           5.74136        -1.29298         2.19176
LJ          -2.14389         4.89924       0.0681358
LJ           5.06237       -0.226099        -5.16209
LJ          -5.98514        -4.67238        0.573864
LJ          -3.64624        -1.96654        -1.18179
LJ           4.56327       -0.646497         6.20698
LJ           5.21406         1.81318        0.364673
LJ           2.31541        -6.12296        -2.63268
LJ          -1.36154         4.58062         6.22056
LJ           4.58767        -2.13792        -5.68767
LJ          -0.66199        -4.27586          5.9004
LJ          0.538571         5.01171         1.85141
LJ           2.48406        -4.87838         4.76695
LJ         -0.418678       -0.238011         -1.2046
LJ          -1.98624        -5.85351        -5.70456
LJ           3.33254         1.13599         2.42255
LJ           4.35003        0.950709         3.30856
LJ           6.43969        -3.15449         3.14817
LJ          -4.34201         2.96547         2.27944
LJ          -4.16593          3.6333          1.3054
LJ          -4.76177         -3.1959       -0.303905
LJ          -1.43449        -3.78812        -5.00757
LJ          -2.17578        -3.94125         3.37686
LJ           -1.3427         6.19858       0.0325726
LJ          -4.72589         2.43846         -2.3413
LJ          -3.61339         5.21471        -3.59045
LJ          -6.06269         -2.8437        -5.90336
LJ          0.103998        -6.37442        -2.15282
LJ         -0.774945         5.56667         -4.4023
LJ           2.85912        -5.96068         5.66264
LJ          -1.39239        -4.41064        -5.98365
LJ           -1.8489         2.71383        -4.70783
LJ           3.79313        -5.06041        -3.26888
LJ           4.41096         1.92814       -0.403057
LJ          -2.43296        -1.59215        -3.22859
LJ           -5.6434        -2.52039         4.42978
LJ         -0.232641         3.60518         4.09092
LJ           4.27539         6.13628          1.5006
LJ          -2.49363        -5.21439        0.631241
LJ          -2.23923         -2.2516        -1.48899
LJ          -1.01745         3.62195        -6.34717
LJ           6.05687         1.28187        -1.36526
LJ          -3.29056         5.62274         4.56524
LJ          -6.36529         5.12347         -1.8213
LJ           1.96577        -5.89243       -0.324841
LJ          -2.16114        -1.40424          1.2009
LJ           5.73521         4.69658       -0.664375
LJ          -4.41158          1.9326        -1.40079
LJ           1.96186        -2.78415         5.88329
LJ          -4.57191         5.98157        -4.15531
LJ          0.861558        -1.67432        -2.64699
LJ           2.24719        0.115472        -2.99529
LJ          -4.71362        0.540074        -2.26992
LJ          -4.32544        -6.24865        -5.98814
LJ           -2.1175         1.80982         2.31748
LJ            4.0183        0.635021        -2.59969
LJ           -5.0989         3.60473        -1.13872
LJ          -4.68561         2.42063         -5.6432
LJ          -4.70883        -2.03711        0.560131
LJ           2.92718         3.65682         6.24507
LJ          -1.83619         2.87816        -4.65815
LJ           1.91062         0.97373       -0.947576
LJ         -0.989766         4.98203         -3.9148
LJ          -1.64357          3.5281        -3.34293
LJ          -4.71204         5.60781         4.98742
LJ          -2.36905        -0.87773         3.04547
LJ          -4.68127          2.9216         3.12218
LJ         -0.235358        0.294383       -0.721015
LJ          -3.46692       -0.476659        -2.52903
LJ          -1.43688         2.40196       -0.517497
LJ           6.20586         5.70671        -2.10827
LJ           3.88276        -4.97626        -1.90499
LJ          0.949688         4.05347        -5.14657
LJ          -3.64344        -5.70067        -2.92602
LJ          -1.55352         6.06277         3.21594
LJ           5.89153         4.48354         2.75908
LJ          -3.31349       -0.164996         2.02743
LJ           1.14819        -6.35722        -2.00068
LJ          0.818893        0.728495        -4.05999
LJ          -3.52237         3.28124        0.431927
LJ           5.45398         -2.5652       -0.502816
LJ          -5.80859        -3.88598         2.19043
LJ          -4.31227         5.50046         1.68667
LJ          -4.08316        -4.88038         3.69852
LJ           5.05768         1.76873         2.65457
LJ          -5.45261        -4.98448          2.9983
LJ           4.18969       -0.353968         5.80852
LJ            1.1166        -3.28975        -2.95383
LJ         -0.885842         1.61038       -0.245986
LJ          0.749589         2.28184        0.541736
LJ          -5.87355          1.5893         1.48242
LJ            4.9301        -5.04518         4.39187
LJ           4.65063         3.23899        -1.12426
LJ           1.56952         6.15353         3.39423
