108
#Comment!
LJ           1.85292        0.131738        -3.22119
LJ           4.89956        -1.13548      -0.0328486
LJ           1.59218        -1.23415         1.51438
LJ           5.11723         4.40557         2.32809
LJ          -2.32037        -3.89597         4.40236
LJ           3.18312          6.1562         0.79821
LJ          -1.51246        -1.08935         5.19432
LJ           5.33467        -1.84402        -3.05002
LJ           1.05067        -5.51624         0.92732
LJ          -4.82047       -0.249381        -5.49149
LJ           -5.7876       -0.883928        -6.03676
LJ          -4.05002        0.437178        -1.60469
LJ          0.498735         3.00896        -2.23798
LJ          -5.69254          2.1236          1.2162
LJ          -1.98246        0.553734        -5.58973
LJ         -0.402015        -4.79114        0.373355
LJ           1.55268        -5.39843         5.91672
LJ          -1.50594         1.21137        -4.09001
LJ          -4.40221        -2.17107         4.60785
LJ          -3.22435        0.102799        -4.91952
LJ          -2.18794       -0.239041         2.68654
LJ           4.19843         6.33817         1.40055
LJ          -5.29675        0.648572        -3.80746
LJ           1.29738        -5.57993          3.7729
LJ          -1.77914        -4.60887         1.86977
LJ           5.23522        -4.21889        -4.13072
LJ          -5.06438         3.31053        -2.96969
LJ          -5.96809        -2.39989        -4.02629
LJ           1.36056        -3.67383        0.125716
LJ           1.65905       -0.399052         6.08006
LJ           2.16282         3.63093        -3.34567
LJ           4.71654        -5.59649       -0.930549
LJ           6.00445         -2.2527         4.50978
LJ           3.68193        -1.46412       -0.508471
LJ           4.47427         5.30731        0.661815
LJ          0.220469       -0.751645         6.23808
LJ         -0.220967         5.76399          3.7138
LJ          -4.88089        0.109889          2.3955
LJ          -3.64921        -1.48673         6.38077
LJ           6.08255         4.68008       -0.494452
LJ           1.15565        -4.41438         -4.9236
LJ          -3.44614         6.34996         5.32824
LJ         -0.328543        -4.81399        -3.97428
LJ          -5.25221        0.505091         1.25783
LJ          -4.29466         -4.9345        -4.47348
LJ           5.25981         3.01904         0.87628
LJ          -5.91987        -2.60666        0.939277
LJ          -1.95189         1.55665         6.33497
LJ        -0.0760824        0.213104          4.8423
LJ            5.8914        -2.89794        -3.42627
LJ         -0.103646        -4.25115       -0.752782
LJ          -1.42277        -4.42022        -1.62449
LJ         -0.745571        0.592126        -1.71738
LJ           3.27225         6.07586        -1.05517
LJ           4.24923         -5.4806        -3.47094
LJ           5.70961         4.53993         5.13237
LJ          0.675248         3.84714         -4.6588
LJ          -3.43445         5.99547        -1.00693
LJ          0.830107        -2.41942         1.09293
LJ           5.74817         3.37076       -0.667509
LJ           1.49032       -0.011936          3.3433
LJ          -3.29381         4.45003         4.81957
LJ          -6.20543         4.63916         5.53156
LJ           3.69193         5.86963         2.55884
LJ          -6.28813         -4.3756          3.5368
LJ           3.52916        -4.63053        -3.87813
LJ           4.51145        -1.58358        -2.42374
LJ          0.584443         1.74809        -1.08807
LJ           5.71896         -1.2907          -2.213
LJ         -0.631287         4.39869         4.31188
LJ          -3.68603        -0.21845         1.68302
LJ           -5.5608        -0.73357         5.54103
LJ          -6.45985        -1.36706       -0.184192
LJ           1.37731        -5.50963        -5.98777
LJ          -2.68663        -1.12392        -3.33159
LJ           2.93055         2.50736        -4.57065
LJ          -5.05754        -4.23251        -1.70726
LJ         -0.494185        -1.36676          5.1867
LJ          -2.78435        -6.17019         -4.9443
LJ         -0.364276        -3.03711        -5.91544
LJ          -1.49303        -2.17669         -2.1874
LJ           6.28467       -0.261986        -2.46198
LJ           3.18602         3.04454        -3.46032
LJ          -3.63051       -0.278486           3.968
LJ          -2.42329         3.82323         4.82683
LJ          -3.82903       -0.452603       -0.961448
LJ          -3.01012        -1.09791           1.892
LJ           5.32486        0.127682          3.7292
LJ           3.78897      -0.0886817        -1.07467
LJ         -0.332884          3.5894        -2.64564
LJ          -4.67706         2.94389         5.23631
LJ           4.90154       -0.536168        -2.76355
LJ          0.706994         4.97178           5.458
LJ            2.5563         1.98284         3.52627
LJ          -2.80491        -5.80951        -6.25356
LJ           5.29911       -0.444671        -1.45598
LJ          -1.51069       -0.295085         3.93351
LJ         -0.316946        -2.38982       -0.250328
LJ        -0.0988911         5.82175         5.07789
LJ           2.74486          3.4302       -0.506391
LJ          -3.15689        0.840399         2.82231
LJ           4.42348       -0.252718        0.867261
LJ           4.22573         1.27334        -1.41658
LJ          -3.47292       -0.694429        0.636675
LJ          -5.51449         4.38593      -0.0248969
LJ           3.83372         2.06285         3.86228
LJ          0.999236        -5.69523        -1.38552
LJ          -6.03228        0.884881        -4.54604
