108
#Comment!
LJ           2.58572         3.78176        -4.65213
LJ          -5.30642        0.616352        -4.40636
LJ          -5.92985       -0.494882        0.266483
LJ           2.30035         6.14302         5.68075
LJ           1.32013        -1.09422        -2.98322
LJ            6.1423         4.61539         1.92578
LJ         -0.287851        -2.16665        0.984192
LJ          0.821992      -0.0842103        -3.72654
LJ            -4.589        -4.41049         6.31463
LJ         0.0761154        -4.02726        -4.98332
LJ           2.34482         4.46828        -5.34026
LJ             6.132        -6.11885        -1.54436
LJ           6.27049        -1.11298       -0.207059
LJ          0.486443         5.34537        -4.63903
LJ         -0.184325         3.43421        -2.02514
LJ          -4.61612         3.25667         1.25175
LJ           3.35344        -1.38302        -4.34528
LJ         -0.137359        -1.81049         6.26358
LJ          -2.83846       -0.816638        -2.02847
LJ           3.34688       -0.249334        0.338365
LJ         -0.483746        -3.15052        -4.02564
LJ           1.97802        -3.19939         5.41141
LJ           4.19675         2.43563          2.6233
LJ          -4.22723         2.00774         3.67084
LJ           6.37359        0.326788         5.12909
LJ          -4.87276         -1.2563         5.49787
LJ          -5.99122        -1.40323         6.06172
LJ          -2.58696         3.99128         5.43479
LJ           4.38387         2.09938          4.7247
LJ           3.92373         4.46134           1.561
LJ          0.139211         4.71855        -3.81714
LJ           2.21232        -3.22618        -6.00183
LJ            5.3048         1.18584        -6.45078
LJ         -0.962103         4.83665        -5.11651
LJ            3.8688        -2.88934         6.30806
LJ           3.70739       -0.261451       -0.663683
LJ          -2.50192         5.04054         4.71386
LJ          0.534387        -1.43448        0.491423
LJ          -1.98536         2.44589         1.21169
LJ          -4.60756        0.569424        -0.90117
LJ             1.938        -1.75727       -0.612289
LJ          -5.10892        -2.39974        -5.77597
LJ          -5.75129         4.71117        0.860719
LJ         -0.882018        -3.19121        0.694739
LJ          0.101685        -2.46378       -0.171599
LJ           -5.1111         1.81455         2.63086
LJ           3.49616       -0.326961        -2.56021
LJ           -2.3613        -2.50973       -0.999371
LJ           5.64184        -3.17346        -4.57929
LJ           6.15452       -0.109569       -0.704484
LJ           -6.0012         1.07964         2.55044
LJ           2.30559         1.90532         5.43502
LJ           4.02515         1.13189         5.20933
LJ          -5.49889         1.95433        -0.23366
LJ          -1.42516         3.55871        -2.68486
LJ         -0.850138        -2.66295         5.86653
LJ          -2.01325       -0.466826        -4.26751
LJ           6.28552          1.3871        -3.61499
LJ          -3.92205        -4.75777         1.67288
LJ          -5.89094       -0.841009       -0.980357
LJ          -4.80354        -5.85738         5.23145
LJ          -1.98305         4.57607        -5.91908
LJ           4.11772        -3.61887        -2.20817
LJ          -4.37464         1.14943        0.100211
LJ          -3.48777         3.21873        0.463974
LJ           1.23716         6.14124         3.52885
LJ          -3.57744        -2.55233         -1.1577
LJ           2.12113         1.37016         1.49004
LJ           3.06616        -2.46901       -0.662789
LJ           2.39182         3.94973         2.26154
LJ          -1.80816         1.11578         2.38949
LJ           1.37973        -2.28007        0.401759
LJ          -1.75797        -2.44044       0.0557499
LJ          -1.55338        -1.44893         1.22002
LJ           -4.7743         3.55836         4.37568
LJ          -5.37766             5.8        0.679045
LJ           -4.0009        -6.41295        -5.92076
LJ           -1.9627        -2.68302         1.62547
LJ           1.62598        -5.96502        -6.27674
LJ          0.147462        -3.60429         1.53914
LJ          0.373612         2.11201         4.14462
LJ           3.81568        -1.89481        -2.11178
LJ           1.69694        -2.38034        -1.56115
LJ         -0.381477        -2.62549         2.04312
LJ          -5.98677        -4.53478         -2.4271
LJ          -5.71367        0.559162         1.12712
LJ          0.970223         0.86532         1.51478
LJ         -0.946847       -0.658715        -1.91815
LJ           5.07868       -0.353621       -0.616084
LJ        -0.0752395        -3.42035         4.75163
LJ             1.811        -3.31541         3.60419
LJ           6.01109        0.117513        -1.67654
LJ           1.61272         1.47184        -1.83816
LJ           3.18102         3.46866       -0.398922
LJ           5.72992         3.67329       -0.449094
LJ           3.65162        -1.35569        0.151431
LJ          -5.42609        0.575224      0.00691501
LJ          -4.05499         2.99061       -0.946527
LJ         -0.467327           -2.43        -2.53435
LJ          -4.32487         3.37888        -1.96715
LJ           -1.1122        0.209714         2.28855
LJ           2.23907        -3.66262       -0.303986
LJ           1.22487        -0.87744         4.52548
LJ         -0.348705         1.08277          1.4109
LJ           4.13395        0.383135         1.84066
LJ           3.71234         1.54825         1.75881
LJ           4.37524        0.728282        -2.67672
LJ           4.23033         1.18807         2.68697
