108
#Comment!
LJ          -4.93164        0.711361         6.11927
LJ          -4.90093        -4.21472        -1.38937
LJ            1.1733         4.79337         1.59238
LJ           1.32761        -2.79157          4.3773
LJ           5.10821        0.280849        -5.00596
LJ           3.39151         3.21129         3.47234
LJ          -4.74052        -4.62572        -2.08651
LJ          -5.18086        -2.91555         6.43856
LJ          -3.54334        -1.52408         4.60894
LJ           1.46275        -2.35005       0.0457724
LJ           2.43111        0.501617         1.60397
LJ           3.97303        -1.60946         5.22679
LJ            -5.346       -0.655118       -0.366239
LJ           2.96999          -3.315         5.65777
LJ           3.88859         3.15029         -3.6421
LJ           5.70878         -5.8891          5.6825
LJ           4.32375          -5.699        0.809005
LJ          -5.60105        -4.23696        -3.08041
LJ           4.13805         4.90923         5.35247
LJ           -2.1901         5.39813        -5.68884
LJ           1.64701       -0.502985        -5.10733
LJ          0.793147         1.98674         3.27805
LJ            2.6226       -0.806686        -4.06981
LJ          -0.53567        -0.57661         1.68383
LJ           3.51212        -3.40397         5.29886
LJ          0.228315         3.20171        -6.20068
LJ          -1.13794        -1.82704         2.27503
LJ          0.925925        -1.04101        -6.07598
LJ           5.80228           1.535          4.5906
LJ           2.24081         5.99302         5.97391
LJ           4.79215        -2.21109       0.0502962
LJ           -3.9728        -3.14414        -3.74286
LJ           1.04342        -3.55269         -4.9519
LJ           5.17219         4.12117         5.74745
LJ           2.19569        -2.24721        -6.06434
LJ           2.34222        -5.25332        -4.63939
LJ          -5.61704        -4.59409      -0.0931654
LJ          -5.37579         3.74219         3.95691
LJ          -2.48066        -4.41768        -1.65459
LJ           2.71121       -0.681556        -5.10894
LJ           1.30374         -6.0426         5.56125
LJ          0.842893         3.64931       -0.324691
LJ           6.25872         3.34643        -3.68533
LJ           4.93457         1.34853         3.91793
LJ          -4.01634        -5.78121         1.81595
LJ           -6.2229        -4.76327        -5.59444
LJ          -2.95746        -1.78074         3.60894
LJ          0.268156         1.48698        0.881755
LJ          -4.81431       -0.745384        -6.18117
LJ           5.48823       -0.380933        -3.51395
LJ           2.22866         5.89547          3.1915
LJ          -4.51266        -1.15711         2.50642
LJ        -0.0933488          2.9766         5.94392
LJ           4.88425      -0.0306009        -4.76755
LJ           3.65827        -1.57643        -4.94659
LJ          0.187469        -2.42728        -3.97347
LJ           4.11038        -6.00046         2.22525
LJ          0.394871        0.474572        -5.69264
LJ          -6.44819        0.632237        -3.10713
LJ          -4.96866        -3.91298        -1.02052
LJ           4.56739       -0.786446         1.13754
LJ           5.36644          2.5144        -1.42696
LJ          -3.74809      -0.0384799       -0.138411
LJ           -6.3113         2.64047         4.19101
LJ          -2.63458       -0.724124        0.558046
LJ         -0.705413         1.79275        -4.57468
LJ           6.13034        -1.75271         5.69357
LJ          -1.86429         -3.8266         5.89522
LJ           3.37873       -0.315716         4.12434
LJ           4.15776         1.01483        -6.17699
LJ          -2.55025         5.91284        -0.23616
LJ           2.67184         1.91196         4.89364
LJ           2.97392         2.16344        -4.66955
LJ           2.03621         5.75009        -4.70424
LJ           1.48935         -3.7392         3.85028
LJ           5.72495        -2.23756        -2.73306
LJ          -4.85234        -1.34729          1.0324
LJ          -5.31248         2.60085        -5.72999
LJ          -6.00075        -2.58946         5.14996
LJ          -4.12394        0.427267         2.25339
LJ          0.564301        0.209737          5.2036
LJ          -5.16182        0.660468        -3.21414
LJ           5.15309        -4.41893         4.77418
LJ         -0.723806          4.4208        -3.66802
LJ          0.682848        0.375581        -3.14109
LJ         0.0439029         5.00229        -3.31785
LJ        -0.0990107         4.98837        0.454786
LJ           4.70387         3.35125        -5.46298
LJ          -3.34945         0.73202        -6.42417
LJ           4.13989       -0.667884         1.52187
LJ          -4.08641        -3.56966         3.98913
LJ         -0.089366         2.79253          2.5366
LJ           3.10907           2.977         3.11488
LJ          -2.88695         2.56068        -1.75312
LJ           6.11048        -4.42728         2.43783
LJ           2.50087       -0.560663         1.13303
LJ         -0.358906        -3.42501        -2.42919
LJ          -4.41845       -0.417551         -1.5297
LJ           6.01316         3.56356       0.0316956
LJ           6.04626        -2.44652        -3.84921
LJ          -4.30429        -3.76631        -1.73062
LJ           3.37661        -5.08778        -3.00067
LJ          -2.52022        -5.27666        -4.11058
LJ          0.438893       -0.206472         5.28411
LJ           2.98842         3.27137        -4.10709
LJ           1.08201         2.98184       -0.731167
LJ          -3.79615         3.71382         1.34274
LJ          0.534035        -5.97032         3.59239
