108
#Comment!
LJ          0.243732        0.451414        -3.57245
LJ          -6.34723        0.269752        -5.64026
LJ           6.08712       -0.264596        0.142594
LJ           4.07598         4.97555        -4.38488
LJ           4.68568          1.3629        -1.70634
LJ           -6.3979         1.62143         1.03253
LJ          -1.01216        -1.48367         1.18164
LJ           2.05264       -0.610132        -3.83525
LJ          -4.00692         6.39394         4.70594
LJ          -2.34626        -4.14227        -4.92062
LJ           1.27601         3.38833        -5.63092
LJ          -4.92308         5.60337        -1.40467
LJ            3.6395        -2.46774       0.0669758
LJ         0.0087214        -5.82899        -5.68897
LJ         -0.611143         5.13314        -3.46419
LJ          -3.98459         1.18734         2.68298
LJ           6.21318        -1.36821         -4.7481
LJ         0.0845716        -1.63379         5.44712
LJ          -2.86151        -1.00748        -2.69422
LJ           5.05294        -1.38102         2.27946
LJ          -1.24625        -3.82636        -5.04992
LJ           2.22701        -5.03114         3.63939
LJ           4.86701         2.99222         3.09322
LJ          -2.24332         4.74696         3.16779
LJ          -5.67993        0.664157           3.176
LJ          -5.65638        -2.31252         3.93559
LJ            6.3664         -3.2607          3.6802
LJ          -3.92351         2.31216         4.70556
LJ           1.80807         2.11262           3.637
LJ           1.01809         -4.7209        0.469357
LJ          0.843287         5.03626        -4.11264
LJ           3.02657        -4.75746         4.69677
LJ           5.29188           3.265          5.4824
LJ         0.0175033        -6.07656        -4.43703
LJ            5.9445        0.133717         3.22978
LJ           2.66082       -0.880914        0.193479
LJ          -2.35515        -5.72657         6.37732
LJ         -0.218992       -0.897886         1.63494
LJ          -2.35486       -0.430163         1.49379
LJ          -5.56178         2.23621       -0.398474
LJ           3.56386        -1.21082        -1.05267
LJ            5.7626        -2.94919         6.02064
LJ          -4.25377         2.26239       -0.994952
LJ          -1.85075        -2.38327         1.98341
LJ          0.706799        -2.01572         1.65423
LJ          -4.61468         1.95282         3.94695
LJ           5.37566       -0.964161        -2.54081
LJ          -3.14101        -2.59578        -3.35596
LJ           4.05544        -4.13081        -5.61197
LJ            4.6037       0.0963414        0.751394
LJ          -4.18675       -0.441913         2.17976
LJ         0.0466732         2.47017        -4.97793
LJ           5.85946        -2.16014         2.62079
LJ           4.39788         1.77336        0.392531
LJ         -0.507401         4.50108        -2.41091
LJ          -1.49381        -3.61255         6.21034
LJ          -3.67144         1.13807        -2.79249
LJ          -5.59637         2.20474        -3.82754
LJ          -4.86382        -6.14215         3.15158
LJ           4.18665        -1.01304      -0.0713014
LJ           -4.4494        -3.73077          5.3779
LJ          -2.29092         5.32831         5.50456
LJ           5.00768       -0.254182        -3.79702
LJ          -5.09785         1.76786        0.789978
LJ          -4.93591          4.0269       -0.121251
LJ           2.76402        -5.44296         6.14925
LJ          -4.24087        0.910459       -0.291219
LJ           2.85032         2.49282         3.15811
LJ            3.1055        -2.07806        -1.67141
LJ           3.86244         2.70528         2.47051
LJ          -1.48392        0.695873          2.5527
LJ           1.41823       -0.948607      -0.0668263
LJ          -2.17549        -3.07513       -0.960744
LJ          -1.90927        -1.88067        0.692773
LJ          -5.66383         5.00712          4.6642
LJ           5.69615         3.15165           1.237
LJ            -0.483        -6.26037        -2.48126
LJ          -1.16785        -2.49513         3.01857
LJ           2.94127         6.10778        -5.30965
LJ          -1.96983         -3.5609         2.68298
LJ          0.230258       -0.697237          4.8396
LJ           3.74566        -3.31154        -2.07301
LJ           1.81544       -0.921334        -1.05845
LJ         -0.712883        -1.68741         2.29672
LJ           5.59978        -5.28909        -3.62725
LJ          -5.87664         1.34994         2.05315
LJ          0.469741         0.80852         2.62205
LJ         -0.435611       -0.527263        -3.10653
LJ           4.51484        -1.80971        -2.13846
LJ          0.235715          -5.641         6.09756
LJ           4.08672        -5.97156         4.51935
LJ           6.22184        0.313498        -1.24464
LJ           2.64983         3.07978        -2.58836
LJ              3.02         3.17095       -0.118335
LJ          -6.02667         4.07864        -1.28002
LJ           3.97631        -2.46829        -1.08299
LJ          -5.82959        0.789749         0.96776
LJ          -4.51297         4.96375        -2.13017
LJ         -0.695087        -2.77729       -0.404158
LJ          -4.82255          3.5051        -2.11589
LJ         -0.380276         1.24822         1.68721
LJ           2.24388        -1.81719       -0.476248
LJ           2.09076       -0.321311         5.94805
LJ         -0.450888         1.40947         0.56863
LJ           4.35628        0.820704          2.1778
LJ           4.07233         1.78331         1.68235
LJ          -6.41459       -0.346443        -2.78767
LJ           4.30162         1.85103         2.67791
