108
#Comment!
LJ           1.05938        0.887741        -1.99408
LJ           5.42743       -0.683158          5.5152
LJ           4.89335        0.580384        0.188002
LJ           4.42702         3.51129       -0.684726
LJ          -5.48349         5.26289        -3.91072
LJ           4.67725         2.31843         1.35568
LJ          -2.52293       -0.426379         2.86496
LJ           3.71295         -1.3324        -3.67291
LJ          -3.69624         4.14781          3.0154
LJ          -3.62004        -2.69475        -4.98943
LJ          -0.70125         1.70606        -5.54632
LJ          -3.76993         4.66495        0.033573
LJ           2.24543          -4.821       -0.325613
LJ          -2.04102        -4.38888        -2.53807
LJ         -0.971888         3.28076         -4.6956
LJ          -1.28117        -1.44189         4.41102
LJ          -2.72242        -1.59331        -5.35514
LJ         -0.227914        -4.86377        -6.16361
LJ          -2.25146        -2.02161        -4.37982
LJ          -4.19954        -3.88252         4.37118
LJ          -2.04397          -1.381        -2.26953
LJ            3.6181         6.24086          2.1953
LJ            5.8094          1.6186         4.49547
LJ          0.174799         -4.6518         1.87538
LJ           -4.9395        0.420576        0.511738
LJ          -5.71239        -5.53812         1.24048
LJ          -6.34309        -4.22161         1.08148
LJ          -4.19309        0.448389         6.30446
LJ          0.428615         3.28352         1.61739
LJ          0.583568       -0.925695         2.54428
LJ           1.41028         4.78673         -4.4857
LJ           3.07094        -6.04637         1.52581
LJ           4.72598          2.2247         4.78831
LJ           2.01883        -4.08165        -3.25165
LJ           5.62122         3.06869         2.33936
LJ           1.40631        -1.17252        -0.86092
LJ           -3.0644        -6.00553         5.63745
LJ          -1.85398       -0.904125         1.87922
LJ          -1.74363       0.0432291         4.06288
LJ          -6.04853         4.35665        -1.81513
LJ           5.36079        -1.83909        -2.28962
LJ           3.05264        -3.94978          4.8782
LJ          -1.53301       -0.313878        -1.25197
LJ          -2.55107        -1.60265         2.68515
LJ           1.86896        0.610599         3.66724
LJ          -6.29093         1.09061         1.98529
LJ          -5.68921        -3.00249        -2.73843
LJ          -3.84604        -2.14671        -6.06578
LJ           3.52859        -2.71032          5.9285
LJ           4.39314        0.203681         6.10024
LJ          -2.79732        -2.73081          1.3856
LJ           -2.0854         4.50373        -3.69622
LJ          -5.11801        -5.01188       -0.831259
LJ           4.01039         3.99327        0.296784
LJ           0.93099         5.18099        -2.17392
LJ          -2.47429        -5.24462         6.13853
LJ            6.2643         2.82044         -2.5198
LJ          -4.61129         3.51956        -3.25337
LJ           5.60252         6.39919         2.24041
LJ         -0.265432        -3.80304       -0.359143
LJ           -3.6554        -1.09372          5.9031
LJ          -2.27654          4.8594         3.44458
LJ            6.3419          4.4554        -4.12505
LJ           5.87997         4.15271        0.934124
LJ          -6.19387         5.62345        0.256783
LJ           3.52701         5.93125        -3.21318
LJ           5.62671         6.25132        0.877148
LJ           2.14608          2.6452         6.13426
LJ           4.35915         -1.5572        -2.67242
LJ           4.00616         3.08131         1.73787
LJ           -1.0364        0.851959         1.39708
LJ          -0.94197        -1.01815        0.963293
LJ          -3.78253        -3.95148        -2.49789
LJ          -3.34068        -3.80232         3.71078
LJ          -5.68431        -5.46405        -6.24389
LJ           2.19541        -1.31193        0.576016
LJ           2.23923        -1.65734          2.5342
LJ          -1.60378        -2.01076         2.95691
LJ           5.88473          6.0553        -4.63578
LJ          -3.35651        -3.47285         4.79839
LJ          0.531815       -0.803796         5.66459
LJ           3.91388        -2.10714        -1.89989
LJ           3.26845        0.397089       -0.955294
LJ          -1.86273       -0.935146         3.53071
LJ           3.22959         6.24186        -5.13601
LJ          -4.37017        -0.49376         1.15721
LJ         -0.891889         1.53514         2.52966
LJ          -3.14073        -5.38628        -4.40392
LJ           3.49827        -3.08918         -2.5835
LJ           1.28866         6.29519         2.42749
LJ          -6.28835          5.0802         4.38202
LJ           5.55122         -0.6533        -1.68001
LJ            4.4583         5.01944        -3.59929
LJ           1.85811         1.62902       -0.863623
LJ           -6.2683         5.05049        -2.69163
LJ           4.75489        -1.67153        -1.39457
LJ          -4.55119       -0.620143         2.99897
LJ           -2.0497         6.22026        -5.83377
LJ          -1.30427        -3.33351        -3.13021
LJ          -5.48312         3.26463        -1.05236
LJ         -0.074199        0.449685         1.74842
LJ            2.4091       -0.432867         -1.0067
LJ           3.02463        0.392747        -5.15144
LJ         -0.420713         1.58831        0.854167
LJ           6.05971         2.04236         2.20363
LJ           3.28356         2.72479        0.663397
LJ            -4.421        -1.96754        -2.62793
LJ          -6.43077          1.5711         5.36198
