108
#Comment!
LJ           1.98324        -6.01012        -1.50233
LJ         0.0550104         -5.9106         1.86695
LJ          -4.77865        -3.38383        -2.88303
LJ          -4.69941        -4.98412         -1.3102
LJ           4.77528         3.28482         5.11706
LJ          -2.56755          5.3214        -5.70989
LJ          -1.58316         1.89236        0.266969
LJ          -2.12046        0.688015        -2.36176
LJ          -3.75689          1.3997        -4.30107
LJ          -2.60748        -5.64549        -1.97653
LJ           6.12446         4.73033           6.241
LJ         -0.873341         2.69176          3.6212
LJ           2.69619         2.30478       -0.121626
LJ        -0.0734054         2.59954         3.81542
LJ             2.116        0.183273         3.04086
LJ          0.388545         3.70918        0.767609
LJ          -1.69169        -1.69678        -1.94499
LJ           5.31184         6.19252        -2.84768
LJ           6.45782         -3.9263         4.63462
LJ          -4.49628          2.6505       -0.483094
LJ           2.05663         1.97239        0.171039
LJ           1.08408         2.52818      -0.0255169
LJ          -5.24222          -4.388        -1.46815
LJ          -4.52066         3.59718         1.85741
LJ           2.93913         -2.5306         1.03034
LJ          -5.95965        0.119002        -2.39676
LJ           2.33561         1.98224        -3.31003
LJ           4.82709          1.2011         5.58534
LJ          -5.86852         3.21771        -1.29311
LJ            4.4868         6.02435        0.434985
LJ          0.811745        -1.87809         3.92067
LJ          -4.72607         3.01833        -1.59278
LJ           2.58169        -4.75359         2.00236
LJ           5.20987         1.96635        -2.57895
LJ          -2.17975       -0.217122        -3.88719
LJ          -3.97874        -6.32915        0.734944
LJ           6.07193        -1.36702         3.51468
LJ          0.307067         5.69881       -0.775377
LJ           5.82446        -1.19123        -5.98177
LJ          -1.42422       -0.244623        -2.78521
LJ           -1.1842         -5.3114         -1.0889
LJ          -6.17499      -0.0504839        -1.86541
LJ           4.92227         3.29939        0.340241
LJ          -4.66752         4.34557         2.40685
LJ           2.69126         4.40468        -4.57588
LJ          0.203911         2.59445         5.14314
LJ          -3.46836         5.38227        -6.30575
LJ           2.03545        -3.43103         4.36998
LJ           3.53413       -0.717354       -0.502212
LJ           5.66599         3.07785        0.662809
LJ           1.21054        -2.15568         1.73519
LJ          -4.03339         5.33098        0.350715
LJ          -5.46171        -2.87444        -2.01698
LJ          -6.43508        -3.98401        -0.51899
LJ            1.8141        -3.51388        -3.52539
LJ         -0.274439        -5.39816         2.76475
LJ           0.25528        -3.52175       -0.321908
LJ          -3.58653         4.26982       -0.437108
LJ           1.96533        -6.32684         1.24234
LJ          -5.31533        -5.12937         -1.8914
LJ          -1.96633         5.81297        -4.28683
LJ           5.59534        -4.56281         2.52072
LJ         -0.750588        -1.27935      -0.0692478
LJ          -6.33819        -1.37307         5.11452
LJ          -5.22576          -4.744         5.43932
LJ          0.506553        0.392069         4.51709
LJ           -1.8843        0.723073        -6.24911
LJ           4.57508         1.33191        -3.33214
LJ           1.71443         1.82603        -4.40495
LJ          -1.15619        -2.37732         3.47374
LJ           2.99869        -6.10639          1.7774
LJ          -2.39711        -2.47977        -1.57581
LJ           3.24185        -6.36093        -1.73581
LJ           5.30026         -2.7565         5.90208
LJ           4.12968         5.32382         1.27705
LJ            1.2809         4.02837        -6.06762
LJ           1.66414         5.24163         1.96552
LJ          -1.04107        0.966393         5.54514
LJ           2.03581       -0.340478       -0.457216
LJ           1.70435        -4.93787         6.45522
LJ          -5.66475        -3.92991         5.09964
LJ           5.93578        -3.57742        -3.39419
LJ           2.65017        -1.03491       -0.910625
LJ             4.555        -4.55915         -2.7508
LJ         -0.607983         6.23809         0.89172
LJ           1.72842         5.40898         5.29012
LJ            2.1778        -5.67709        -2.28407
LJ           3.59187         5.43057         5.57446
LJ           4.54286        -4.53274        -1.85878
LJ         -0.994147          3.5246        0.361804
LJ          -4.76453        -3.11677         1.79965
LJ           4.41994        0.224785         6.11352
LJ          -5.61092         3.99067        0.271602
LJ           4.04222         1.07131        -6.32116
LJ          -1.45413        -6.18569        -1.13295
LJ           6.40148        -4.01293         2.12126
LJ           4.08609         1.83767         0.86814
LJ          -2.40026         1.76589         1.27048
LJ           3.28406          2.8754         2.27283
LJ          -4.92375       -0.883118       -0.873274
LJ          -1.83868        -5.84491        -2.01027
LJ           5.81315       -0.347925        0.282486
LJ         -0.784469        -5.53061         3.36355
LJ          -1.87383         6.21306        -1.55793
LJ          0.204125         5.96468         5.28546
LJ           2.10062       -0.772242        -5.37569
LJ           6.38878         2.78311        -5.61957
LJ          -6.07287        -1.10199        0.989455
