108
#Comment!
LJ           5.35197       -0.911532         4.26982
LJ          -3.04165        -3.78952        -5.68819
LJ          -5.97376        -2.51059        -4.25389
LJ          0.724574         4.42624         4.34682
LJ          0.421453        -4.24664        -2.42654
LJ           5.84301         2.23201        -1.98446
LJ           3.38416         4.38926       0.0172511
LJ           2.80198        -4.10205       -0.466961
LJ           5.39925        -5.03403         1.48861
LJ           1.29397         6.42524         1.21493
LJ         -0.781436        -3.65892        -6.19559
LJ        -0.0806059        -5.36782         1.69983
LJ          -3.38723          5.6314         4.71559
LJ         -0.265302        -3.26811        -2.20948
LJ           1.66162          1.6397       -0.390937
LJ           4.66554         4.41008         6.17605
LJ          -3.32562         4.00163        -4.63993
LJ         -0.646888         2.55491         5.95433
LJ            1.1611        -3.69721        0.944025
LJ           2.43918         1.89968        -1.10706
LJ            2.9701         2.44543         5.42435
LJ          -5.16823        -1.94891         3.63785
LJ          -6.32338         4.80353        -1.62125
LJ           6.30524        0.600741         5.93591
LJ            2.1879        -1.85623         4.66807
LJ          -5.06543         1.42049         3.50411
LJ           5.47057         6.03625         5.62389
LJ          -3.44587         1.21727        0.168975
LJ          -3.77057        -3.27091        -0.63737
LJ           6.38931          2.3545        0.807381
LJ           0.70549         1.72845         3.48247
LJ          0.606885         4.85344        -4.39014
LJ         -0.488341         2.15157        -3.61816
LJ          -2.19503        -5.32746        -2.00334
LJ           3.74659          4.8415      -0.0800391
LJ           -5.9895        -2.05582        -3.28588
LJ          -4.08631        -5.61928        -3.09067
LJ           3.56919        -5.43969         3.39536
LJ           2.31066        0.647582         2.64491
LJ           2.29026         4.91135        -3.57518
LJ            -2.253        -6.36993         4.31068
LJ           4.48042        -5.01942       -0.580006
LJ          -4.29602         1.67629          4.3204
LJ        0.00673935         1.40658         1.89247
LJ           1.51488         2.11455         6.45076
LJ           -3.2583        -4.86554         -1.1661
LJ          0.215965        -1.89919         4.92094
LJ           5.95133         3.09267        -6.42679
LJ           4.26903        0.765493         1.41052
LJ         -0.788901        -2.74922        -4.07098
LJ         -0.757222         5.64638          5.9543
LJ          -3.32124         -5.5226        -0.69576
LJ         -0.277106         2.47566         3.02254
LJ         -0.123385         3.57931         3.39678
LJ           3.33748        -4.97926        0.951145
LJ          -4.86299       -0.290317       -0.068673
LJ            1.1208        -5.68618         1.32004
LJ          -5.10597         4.70096          -2.661
LJ         -0.643674        -1.91693        -2.44885
LJ           6.08092         5.64418        -4.09422
LJ          -1.96811         2.41618         0.10407
LJ            -6.221         -4.7557        0.662361
LJ         -0.302404          5.8227         1.01372
LJ           2.02708         5.04572         2.77817
LJ          -4.89684         4.31309       -0.957557
LJ           1.82396          4.6744        -6.28815
LJ          -4.87631        -6.00861        -1.26378
LJ          -1.40393         5.64809        -1.63073
LJ          -5.63726         6.04326         5.21077
LJ           3.61337         5.73191         2.99708
LJ           1.55244         4.70834         3.95261
LJ          -2.53127       -0.303491         3.47491
LJ          -3.71962         6.23033         0.99601
LJ         -0.622045         2.15196        -5.10763
LJ          -4.21545        -3.32194        -3.85863
LJ          -3.20481         1.81445        -6.09299
LJ           4.44615        0.327079        -3.70773
LJ           6.06877          1.0607       -0.322817
LJ          -2.70171         -4.5856         3.83513
LJ           3.16432         4.79515         4.15404
LJ          -5.52954        -2.19103        0.482886
LJ          -4.54858         1.78965       -0.164424
LJ           2.36637         5.00104          3.8179
LJ          -4.39095         4.44019         0.37191
LJ           3.68306        0.931087        0.643837
LJ           4.02088       -0.813284         5.46988
LJ          0.428884        0.589879        -2.73029
LJ          -6.10345         1.47013        -1.51863
LJ          -1.16483        -3.91694         2.24048
LJ           1.99229        -5.31865         4.65049
LJ          -1.05249         5.49803         5.96801
LJ           3.73525       -0.429124         5.01643
LJ           2.83296       -0.129515        -6.45734
LJ           5.38623       0.0746542         4.02663
LJ         -0.609838         3.50245        -5.38877
LJ          -2.58637        -5.38515         -4.1536
LJ        -0.0922826         6.43183        -3.39452
LJ           2.05432        -2.55687         6.18417
LJ           6.02462        0.295092       -0.133906
LJ          -3.10789         6.04127        0.131058
LJ          0.491017         2.26714        -5.63949
LJ          -1.26253        0.145362         2.85171
LJ          0.332804        0.320302        -3.49017
LJ           5.80903         1.99126          3.3232
LJ           -1.5805        -6.26175         6.28915
LJ           1.96806        -5.74406        0.800641
LJ          -6.41374        0.304585          5.0435
LJ          0.629151        -3.78072        -0.28834
