108
#Comment!
LJ         -0.185857        -5.89878        -2.35186
LJ          -4.30857        -1.46788        -4.53306
LJ          -5.87644       -0.158817        -5.26891
LJ           3.23622          4.1734        -6.44061
LJ          -4.84098        -2.36274         6.13944
LJ            5.3753        -1.55754         -4.5409
LJ           5.29058         6.32469         4.26028
LJ           2.15962         6.18089         4.94563
LJ          -4.66755         -2.0581        -1.10782
LJ          0.304349         4.88271       -0.323418
LJ           1.46347        -4.86672        0.252271
LJ          -5.26463        -3.11535         3.49604
LJ          0.950848         2.55151         -2.2433
LJ           4.42787        -4.17964         5.98693
LJ         -0.817334        -5.84632         3.20426
LJ          -2.07685        -1.16468         4.84197
LJ          -3.44753        -2.98093        -2.57322
LJ           4.78608         1.98844        0.585294
LJ          -2.57104         -1.5437         3.20628
LJ           2.55391        -3.57906        -2.86527
LJ          -4.95567        -5.21989        -1.66911
LJ        0.00609325         4.32388         5.52111
LJ           3.56018        -1.06241        -5.58278
LJ         -0.865429        -1.36657       -0.339036
LJ          0.821223        -3.15942         1.10948
LJ           2.47204        -5.40849         5.07438
LJ          -1.44475        -6.23479         -1.6439
LJ          -6.09834        -3.43598        -4.31489
LJ           -4.6834        -5.22291          3.9824
LJ          -4.91966       -0.565162         3.19715
LJ          -5.50647         5.15262         -1.7071
LJ           -1.6251         5.55417        -4.97804
LJ          0.460737         3.30368        -2.95115
LJ           3.52825        -4.97506         1.89892
LJ           3.09925        -1.79533         6.33276
LJ           2.40861       -0.337752        -3.31598
LJ          -2.40492        -3.03263      -0.0363341
LJ          -5.57279         2.89719        -5.13825
LJ           4.96944        -5.80675        -5.95594
LJ          -0.76096         3.47115         1.67255
LJ          -4.53113         6.11612        0.921492
LJ          -5.78914        -5.75005        -6.09457
LJ          -3.91828       -0.842788         1.05851
LJ         -0.210314         4.89804         1.87466
LJ         -0.787177         -5.2304         3.10177
LJ          -4.57924         2.43336         4.40182
LJ           -3.7376        -1.05281        -3.67691
LJ           2.33054         6.09985        -2.57383
LJ          -1.10401         4.98717         1.87028
LJ          -3.32541         5.70002        -5.04378
LJ           4.24715         1.25821         4.89083
LJ           2.30877        0.711389        -1.36984
LJ          -5.76265        -5.90593        0.941874
LJ           -5.3886         5.91023        -2.86954
LJ          0.358423        -3.63984        -4.37843
LJ          -1.82508         1.54147        -1.34717
LJ           -5.5357        0.779296        -5.65018
LJ          -1.50918        0.388857         3.25617
LJ           1.10101         4.57224        -6.24718
LJ          -2.60099        -4.13814        -1.04048
LJ          0.614482        -5.09205         3.65868
LJ         0.0204895         5.84868         4.55344
LJ           -4.5784         4.15597         1.99297
LJ           3.72959        -6.21405        -6.32218
LJ          0.397048        -4.26696        -3.97811
LJ          -2.39936        -5.00031          1.7753
LJ           5.39241       -0.227177         -5.6367
LJ            1.2408         2.98277         3.15706
LJ           3.38143         4.02085        -4.01381
LJ           3.93708        -5.20029       -0.351136
LJ           2.04258        -2.46481        -3.35053
LJ        -0.0427563        -2.97919        -2.24624
LJ          -2.04581        0.263402         4.41053
LJ          -1.25113         2.75098        -2.96617
LJ           2.31331        -3.35953        -2.35741
LJ          -3.65076        -1.19351         3.68088
LJ           4.07005        -6.13195          1.3485
LJ           5.51954        -2.40429        -2.04961
LJ          0.328769        -3.69549        -2.36626
LJ          0.505086         4.08572         2.99736
LJ          -6.09955       -0.570634       -0.473342
LJ          -5.69551       -0.588118        -6.41677
LJ           3.13801         5.73711         -2.7469
LJ           2.57042         2.86493         5.32378
LJ           3.01008        -3.78431        -4.98995
LJ          -1.64535        -3.48905         1.90419
LJ           6.30344        -4.29949       -0.313274
LJ           6.39866         4.53176         3.15997
LJ          -4.08292        -1.64974        -5.44847
LJ           1.69053       -0.611658        -2.67395
LJ           5.02788          1.8646        -2.03934
LJ           3.87533        -5.97118         1.87806
LJ          -5.60568         5.56764         2.58053
LJ           6.00243        -4.65273        0.556007
LJ           5.36355        -5.95881          3.4491
LJ           1.67345         3.07885        -1.56144
LJ          0.502864        -4.79187        -4.41625
LJ           2.85658        -1.67464         6.41442
LJ           5.58454         2.11766        -2.84749
LJ          -5.33046         4.86342        0.408356
LJ           1.41725       -0.607965       0.0774544
LJ          -2.54455        -2.41925         3.60676
LJ          -1.77116         4.79547        -2.29735
LJ          -0.31789       -0.991025         5.80435
LJ           5.77295        -4.12278        -3.95591
LJ           6.17469         1.70055        -1.45092
LJ          0.196313         6.29988       -0.817957
LJ          -3.45677        -4.39666        0.202245
