108
#Comment!
LJ          -5.80208        -3.49649         5.89983
LJ         -0.115578        0.213108        -1.25374
LJ         -0.556735         5.78022        -2.66528
LJ          -3.15095         1.86989       -0.284744
LJ          -1.39442        -4.59424         5.21576
LJ          -0.50518         3.50856        -2.15121
LJ          -0.87677        -2.91023         4.93275
LJ           6.25785         5.34477        -1.74642
LJ          -6.25277        -4.92643        -4.78505
LJ          -3.08269          5.4182        -1.43257
LJ          -2.39272          4.8652        -5.18681
LJ          -3.63969        -4.49192         1.75223
LJ          -2.90736        0.885746        0.839115
LJ           1.86383         4.35268         3.67474
LJ          -2.78645        -3.55868       -0.827565
LJ           2.58346        -1.94078         1.21444
LJ           3.33554        -1.55056         3.19305
LJ          -3.33599        -3.63682        -4.74309
LJ          -2.76212         5.62111         1.39541
LJ          -5.19191         6.26272         4.85526
LJ           -4.4403          2.4222         4.00354
LJ          -4.13817         5.17539         5.19988
LJ          -2.03518         5.67043        -2.61999
LJ         -0.406879       -0.592703          3.2543
LJ         -0.181031        -4.58321         5.71219
LJ            -4.652        -5.26391        -3.72456
LJ          0.367728         5.30863         -4.8955
LJ          -2.75958          5.4612         4.97974
LJ           6.28448        -6.32455         5.81084
LJ           5.10984        -4.15109        -5.10593
LJ           4.96521         3.31059        -2.34434
LJ          -3.26781         6.39503        -5.46306
LJ          -1.72681         2.38292        -5.48744
LJ           3.52042         3.88927         3.57885
LJ          0.233856         2.56643        0.749631
LJ          -1.00726        0.540885          2.9841
LJ          -4.11209        -2.07933       -0.152225
LJ          -2.35421       -0.734847         3.47483
LJ          0.145255        -2.77053        -5.96875
LJ           4.43943         1.10503        0.312792
LJ          -6.40195       -0.126992        -5.68044
LJ           5.44139         5.36443         1.28631
LJ           2.53595         3.21285         4.80542
LJ          0.903495        -1.23308         4.44194
LJ           4.79145        -6.07187        -2.66182
LJ          -4.64476         2.56726          1.5267
LJ           3.87994         4.41936        -4.81194
LJ           3.96277       -0.772058        -3.48044
LJ          -1.57491        -3.38988        -6.16529
LJ          -4.80771        -5.59068       -0.523971
LJ         0.0192257        -1.84446        0.745299
LJ           1.78424       -0.605068        -2.73674
LJ          -3.77286         4.03844        -0.11976
LJ          0.170925        -5.36762         5.82517
LJ          -1.90228        -4.95924         5.35748
LJ          -1.56596        -4.78722        -6.40839
LJ          -1.85233        -3.87744         5.69494
LJ          -5.73064      -0.0208025       -0.829938
LJ           5.47915          5.0554        -1.28511
LJ          0.793889        -4.32741        0.882125
LJ           5.39907       -0.754188          2.2216
LJ          -2.00043        -5.66115         5.87456
LJ           1.36378         5.53683         6.22684
LJ          -1.85727         -2.3892         5.67179
LJ          -1.51564        -1.25285       -0.732246
LJ          -1.53281        0.739551        -5.22261
LJ           6.20901        -4.83502        -1.77342
LJ          -1.65786        0.556144       -0.123694
LJ           4.98632        -4.87713        -1.42157
LJ           2.19569        -4.01847         2.34989
LJ           2.58929         1.12615         2.88039
LJ         -0.166029        -5.23927        -1.44451
LJ          -5.54249        -2.82809        -4.16737
LJ          -5.16559          1.4559         4.60481
LJ          0.052899        -3.14312        -6.08265
LJ          0.922683         -1.9135         2.49226
LJ           4.04551         2.48523        0.429344
LJ           2.19999         6.22611         2.82832
LJ           5.82058        0.956356        -1.75023
LJ           1.25599        -2.62278        -6.34197
LJ          0.999772         2.01579        -2.01353
LJ           -1.0217        -3.62228          -6.391
LJ          -2.87534          1.7553         1.78992
LJ           6.00381        0.249958        -5.11123
LJ          0.442406         4.23921       -0.198383
LJ           3.48382         2.15813         3.09852
LJ          -4.59016          2.3168         3.85481
LJ          -4.33274        0.538594        -2.70428
LJ         -0.531874        0.194629         2.49672
LJ           3.25361        0.504233          3.0389
LJ          -0.57606        -2.19343         1.94565
LJ          -2.40235         2.50885         1.09857
LJ           -3.4116         3.27142       -0.581863
LJ           2.36853         5.39944         3.44081
LJ          -3.60742        -5.12036        -1.69323
LJ          -3.54842        -3.29203         3.06729
LJ           -5.1586        -1.48022        -3.26215
LJ          -3.12811      -0.0067539        -3.74344
LJ           5.39883         2.16119         -2.0625
LJ          -3.73823        -2.33977         5.40169
LJ           -1.5924       -0.229948         1.86085
LJ           1.44011         2.25517        -4.06197
LJ          -4.71176        -3.30382         4.67068
LJ           4.76997         1.83299         -6.1132
LJ           0.13626         5.62805         -1.5938
LJ           3.41071        -5.17075         4.68117
LJ          -4.91012         0.25303         4.41101
LJ           2.33208         3.72016        0.779786
