108
#Comment!
LJ           1.06306      -0.0645005        -3.20558
LJ           4.64882        -1.23446         1.72197
LJ           2.42072       -0.689568         1.25422
LJ           4.97631         3.57422         1.44043
LJ           -3.1761         -4.6588          5.8311
LJ           3.46119         5.68222        0.567816
LJ          -2.35529        -1.21932          4.2414
LJ           4.76307         -1.8692        -3.54573
LJ         -0.616529         5.21783         1.46454
LJ          -3.63652        0.377554        -5.81275
LJ          -4.41308       -0.815948        -5.38466
LJ          -3.76901         1.91908       -0.637513
LJ          0.786036         4.60518        -1.16417
LJ           -4.4438        0.444731        0.836588
LJ          -2.46139         0.82857        -5.54506
LJ          -1.23355        -3.70348         1.79261
LJ          0.614619        -4.73416         6.01218
LJ          -1.15999         3.05293        -4.56682
LJ          -3.55379        -2.62981          5.6725
LJ          -3.57565         1.96208        -4.95133
LJ          -1.98441         1.11342         2.41064
LJ            4.3412         5.78739         1.79991
LJ          -6.01435        0.857588        -4.62455
LJ           1.21232        -4.97589         3.40521
LJ          -2.16079        -3.59294        0.698758
LJ           5.61376        -5.37547        -2.82804
LJ          -5.41922         4.42713        -2.18452
LJ          -5.98098        -1.31494        -4.15371
LJ           1.11364        -5.35437        0.636234
LJ           1.92342      -0.0679415         4.81286
LJ            1.8216         3.94038        -3.58388
LJ           4.01625        -6.42456       -0.147934
LJ           5.88629        -2.26293         4.23431
LJ           3.31585         -2.3893       -0.876421
LJ           5.31835         5.27158         1.12129
LJ         -0.591698        -1.05294         6.09268
LJ          -2.18934         5.96347         4.37159
LJ          -4.31689       -0.402623         1.80209
LJ          -2.30215        -1.21758         6.03622
LJ          -6.05268         4.50171       -0.016983
LJ           2.92323        -3.16855        -3.19812
LJ          -1.42946        -5.52592          4.6106
LJ          0.837658        -4.01556        -2.65152
LJ          -4.83907        0.487216         2.32536
LJ          -5.85694         5.98192         -5.6881
LJ           4.99459         1.81819         0.93212
LJ          -5.39566        -3.07663       -0.465862
LJ          -2.53198        0.716557         5.96815
LJ          0.974997       -0.856692         5.33953
LJ            5.9319        -1.53781        -2.06474
LJ          -1.25288        -3.79421       -0.369292
LJ          -1.86526        -4.75335        -3.25501
LJ          -1.96521         2.75078        -2.10149
LJ           3.19399         5.25832       -0.968463
LJ           3.21736         6.28078        -2.78349
LJ          -5.65995         4.67053         5.34222
LJ           2.39376         3.40976        -4.44374
LJ          -3.98979         5.56728         -1.4987
LJ            1.3073        -3.33951       -0.259603
LJ           6.39433         4.94805        -1.08852
LJ        -0.0490679        0.311635         4.72953
LJ          -3.34964         3.94341         3.67548
LJ          -5.33451         5.73583         5.66808
LJ           3.49326        -6.35557         1.55623
LJ           6.14639        -4.78234         3.14369
LJ           3.35443         -5.1406        -2.83747
LJ            3.8686        -1.92931        -2.21465
LJ           1.00123         2.23681        -2.55514
LJ           4.95487        -1.47993        -2.62107
LJ          0.593909         3.99894         3.57499
LJ          -2.53038        0.254609         1.31432
LJ          -4.82555        -1.08021         4.03501
LJ          -6.32062         -2.4801        -1.13031
LJ         -0.238684        -4.24686        -5.54431
LJ          -3.64045        -1.61628        -3.85012
LJ            2.5061         0.33436        -2.88203
LJ           6.28679         5.88405        -3.90934
LJ          -1.08701        -1.30931         5.04698
LJ          -4.46053         -6.3058        -4.54393
LJ          -1.60121        -4.02106        -4.86969
LJ         -0.334563        -1.22484        -3.22213
LJ            5.4965       -0.833369        -3.48584
LJ           3.18155         1.20935        -2.16603
LJ          -3.01129       -0.567504         5.05178
LJ         -0.900572          4.2073         5.58749
LJ          -3.47857       -0.470469       -0.538926
LJ          -2.20138       -0.410829         2.24719
LJ           6.45313          1.8477         4.96669
LJ           4.45731       -0.675579        -1.83884
LJ          0.633718         4.53707         -2.2284
LJ          -4.59178         3.61175         4.50609
LJ           5.71659        0.182157        -2.81088
LJ          -1.80739         4.97974        -6.05255
LJ           2.20965          1.8018         2.31217
LJ          -3.34357        -5.78225        -5.10063
LJ           5.09837        -1.68779        -1.25363
LJ           -1.2705        -1.25112         3.93423
LJ        -0.0716215        -3.48537         1.76896
LJ         -0.245536        -5.87714         6.16697
LJ           5.39931         4.54823        -1.07855
LJ          -3.59647        0.803791         1.48888
LJ           3.51867        0.272773        0.292892
LJ           4.24243         1.29172         -2.5671
LJ          -2.41666       -0.278384         0.17372
LJ          -5.69532         3.59303        0.826586
LJ           4.53725          2.3991         2.07343
LJ         -0.577489        -4.75031        -1.39867
LJ          -5.90525         1.22297        -5.68662
