108
#Comment!
LJ          -3.39392        -6.44613        -3.64239
LJ          -1.84855       -0.704025         -1.4002
LJ           4.10789        -1.94121       -0.269176
LJ           2.74482         4.38129         2.58345
LJ          -6.33373          5.9917         3.07153
LJ          0.881498       -0.224981         3.05922
LJ           3.78921         1.03275        -4.73586
LJ           5.70777       -0.758932        -6.32545
LJ           -3.7274         -3.0642         2.07871
LJ           6.28952        -5.35672        -3.99789
LJ           -3.6669        -3.93067        -2.27157
LJ          -2.92406       -0.847162       -0.270762
LJ          -5.08758        -3.69714         2.40336
LJ           -3.7235          5.5983         3.94982
LJ           4.09115         3.16437         -2.3775
LJ           3.54253        -1.74102         4.83861
LJ          -5.84934        0.908785        -5.35722
LJ          -3.51998        -1.22992        -5.32149
LJ          -3.54144        -2.43768         -5.5382
LJ           3.90821         2.17165         2.68929
LJ           1.78133        -5.29457         1.39734
LJ           3.94661          5.5804         5.32028
LJ           5.77275        -3.91823         1.20252
LJ          -1.01692         4.07505        -1.25591
LJ           3.39853         5.53078        -1.58242
LJ           4.15419        -4.94199        -5.34844
LJ          -5.97486        -4.09097         1.33227
LJ           1.76764         3.37734       0.0169186
LJ          -5.56655          4.9076        -6.45311
LJ           5.44042         2.78194         6.17522
LJ           5.89962        -5.15376         2.69192
LJ           3.01818        0.931019          6.0099
LJ           5.29316        -4.55056         1.66667
LJ          -4.40271        -1.71345       -0.917488
LJ          -4.37498         4.58736        -5.56802
LJ          -2.56054        -2.66434         3.86358
LJ          0.232375         2.60777        -4.21254
LJ           5.54284         -1.5273         4.37295
LJ          -6.33709        -5.34082       -0.364484
LJ          -3.83841      -0.0647038        -6.25299
LJ          -5.89013        -4.44409       -0.887863
LJ           5.64176        -1.47045         5.08105
LJ          0.500447       -0.102885        -5.21208
LJ          -1.22777         1.11892        0.565641
LJ           3.61268         4.29517        -5.21668
LJ           -3.4332         2.98309        -3.25515
LJ          -4.77319       0.0100797        -3.91514
LJ           2.15915        -2.52417         2.51347
LJ          0.848148         4.45714        -1.62098
LJ           5.68932         4.21367        -6.24006
LJ          -2.37785        -6.31146         3.69773
LJ          -5.42577          4.6496        -4.44507
LJ           5.48243       -0.969759         4.69287
LJ         -0.187319          4.1706        -4.78088
LJ          -6.18023          5.4434         5.99389
LJ           5.19705        -4.52797        -3.33891
LJ           3.05586        -6.00788         5.11464
LJ          -0.28988         -3.0493         1.13009
LJ            4.8491        -2.91168         5.60305
LJ           6.01409         2.23539         1.04722
LJ         -0.853357         3.33126          6.0115
LJ          -5.11859        -6.04097         5.19012
LJ          -1.65953         6.12473       -0.524697
LJ          -5.24772        -5.21438        -4.89081
LJ           3.36648         1.52234          5.6468
LJ         -0.706137        -2.34845         3.07245
LJ         0.0465707         4.71113          2.2139
LJ           4.80247         1.21083         1.90015
LJ         -0.736671        -3.75202        0.558107
LJ          -4.54062        -1.36103         4.14179
LJ           5.96915         3.23194        -4.03077
LJ           3.38789        -3.80323        -3.06237
LJ          0.132218        -3.36771         6.31064
LJ         -0.805592         2.17757        0.124116
LJ          0.928278        -2.27511          0.1237
LJ           1.82764         2.96386        -4.93414
LJ           3.39563         6.07984         2.31523
LJ           3.90396       -0.778498        -4.46887
LJ           6.10524         3.12155        -1.36532
LJ          -1.73222         4.35021         5.71344
LJ            2.6645         3.61273        -1.60109
LJ          -1.40933          -3.712         -5.9037
LJ           6.16288        -1.61921        -5.94393
LJ          -3.41083         1.76788         5.07766
LJ          0.930557        -3.71665         5.37315
LJ           4.12003        -3.00188        -5.54778
LJ         -0.508513         1.27327         3.02878
LJ           -4.9247        -1.85306        -3.11602
LJ           6.20811        -1.01545        -2.46797
LJ          -5.25055        -4.09398         -5.8671
LJ           -5.0203        -1.62372      -0.0971221
LJ          -6.34325         1.58179        -1.37591
LJ          -4.62022        -4.81575        -3.93072
LJ          -6.15698         -1.7145          -3.194
LJ           6.10901         2.43431         -5.0749
LJ          -1.05996        -6.45705        -1.28279
LJ           1.87229         -1.1439        -1.06905
LJ           3.90314        0.837329        -1.86254
LJ            3.4467        -5.51979       -0.378994
LJ           1.85223         -2.2108         6.09371
LJ           4.41102         5.28019         2.12081
LJ           2.04574         6.38143         5.01556
LJ           3.75848        -2.97407        -1.39403
LJ          -5.16971         3.67584         4.50697
LJ          -3.01507       -0.555751          2.7181
LJ           2.33808         4.27446        -4.55735
LJ           4.41445         6.25629         1.07345
LJ          -3.01956         5.67604        -5.46355
