108
#Comment!
LJ          -5.68599        -5.37395        -3.62586
LJ           -2.9852       -0.162091         -3.7584
LJ          -3.27357        -1.84029        -1.70483
LJ           0.27203        -5.43306        0.158291
LJ         -0.124336        -2.71016        -3.10629
LJ           2.60794        -3.85364        -6.40535
LJ          -1.81716        -2.63931       -0.234293
LJ         -0.386103        -1.82376        -2.68746
LJ           4.70292        -2.48023        -4.73929
LJ          0.839053        -2.04784        -2.56619
LJ           2.42998        -5.25242        -5.01552
LJ           2.68982        -4.07479        -1.50964
LJ          -4.13061       -0.370589       -0.785727
LJ          -1.89981         1.17874         -3.7659
LJ          -2.24977         1.32749        -1.75016
LJ           -3.4012        -4.68363       -0.900005
LJ          0.541464           -1.29        -3.18554
LJ         0.0641485         -1.2924        -4.14414
LJ         -0.929227       -0.656463        -1.76206
LJ           1.12413       -0.991858        -1.95108
LJ           1.10854        -2.14169        -3.63327
LJ           1.90334       -0.397221        -3.87002
LJ           2.67218         1.19724        -0.13181
LJ           4.67981       -0.513378        0.102118
LJ          -4.25122        0.514727        -4.91503
LJ          -4.73635        0.878775        -3.74394
LJ          -3.47413        0.684593        -4.14303
LJ         -0.674452         1.23975        -4.04948
LJ          -4.44457         1.28203        -6.30377
LJ           -3.9001         2.21031        -5.64422
LJ            -2.068         2.02208        -2.92485
LJ           0.76611       -0.178888        -3.16553
LJ            1.7564       -0.255699        -2.65357
LJ          0.134694         1.97977         -4.0637
LJ        -0.0932269         4.05609        -2.38699
LJ           2.72484        0.892828        -2.24831
LJ          -1.62529        -6.12883         1.10777
LJ         -0.632811        -2.33387        -1.88668
LJ          -2.58783        -6.11264        0.714874
LJ          -1.81664        0.274553       0.0775744
LJ           1.01039        -2.74667       -0.534288
LJ          -1.87778        -1.06589        -3.57216
LJ          -3.99511        -2.29531        0.687573
LJ         -0.112623        -2.55726       -0.139825
LJ          0.416654        -2.04411        -1.53348
LJ            5.4759       -0.111147        0.685513
LJ           2.28819        -1.08469        -1.48137
LJ         -0.865128        -2.82417         1.24538
LJ          -4.49079         -1.3545        -2.87139
LJ          -2.92591         0.52517        -1.01067
LJ          -5.69162         1.65969         1.02014
LJ          -5.83061      -0.0805566         1.37806
LJ           1.13542        -5.06299        -4.37807
LJ          -1.55802         2.53757       -0.761579
LJ         -0.755274        0.998027        -1.02596
LJ          0.241312        -1.27681         2.01763
LJ          -5.33998        -2.16833         1.32114
LJ           3.81326        0.796405        -2.00293
LJ          -1.61918        -1.49138       -0.749239
LJ          -1.36996       -0.543001       -0.556304
LJ          -3.88188         3.54612         1.61925
LJ          -1.99283         3.23563        -2.82316
LJ           6.03924         5.10693        -0.41963
LJ          -3.29277       0.0370539       -0.041112
LJ           -2.6307         0.76459        0.532772
LJ         0.0321257         3.80549      0.00183638
LJ          -1.30808         4.33755       -0.607522
LJ          0.707938          1.7561        0.253589
LJ          0.906081       -0.121423        0.194154
LJ       -0.00758828         5.17939         1.03504
LJ           0.27605        0.610573         1.91292
LJ           1.72204         4.81699       -0.496736
LJ          -1.46823         -1.5107        0.742972
LJ           -1.9516        -1.14464         1.84442
LJ          -3.02062        0.616457         3.61475
LJ          -3.48239        -4.32125         0.80046
LJ           2.30306        -5.18823         4.53706
LJ          -1.71712        -3.38089        0.873525
LJ          0.529412        -1.93284         4.24353
LJ          0.748138        -2.74363         1.17855
LJ          0.731193        -6.04188         2.38591
LJ           3.46664        -1.54277        -1.30592
LJ           1.62884        -3.08596        0.263466
LJ           1.62591        -3.77152         1.47131
LJ          -3.70417        -3.39899       -0.026222
LJ          -4.27556        0.764013       -0.293987
LJ          -1.20312        0.978452        0.510829
LJ          -2.40836        -1.08402         0.38808
LJ          -4.12939       -0.143736        0.518782
LJ         -0.645744       -0.897912         3.04684
LJ          -2.21643        -1.58881         2.99114
LJ           2.84717        -1.06839         5.96551
LJ          0.957915        -1.54315       -0.182756
LJ           2.93131         2.01638        -1.08186
LJ           2.95041         2.49158          1.9035
LJ            1.9984       -0.169693      -0.0471135
LJ          -3.84993         1.08775        0.748247
LJ          -2.72164         1.84239        0.240368
LJ          -1.19148       -0.732397         5.49957
LJ          -2.11809         1.39931       -0.526309
LJ          -0.71147        0.283417         1.23464
LJ          0.843896         4.10894        0.524646
LJ        -0.0397397          1.0764         3.54654
LJ        -0.0613428       0.0339119         2.70811
LJ           3.18653         1.12061         1.13227
LJ           2.57679        0.278614         1.72555
LJ           1.58724         0.75152         5.87665
LJ           3.48527        0.686647         3.07895
