108
#Comment!
LJ          0.306691        -1.37819         -5.2365
LJ          -1.04992       -0.464063       -0.360281
LJ          -1.07122          3.5794          2.0237
LJ          -3.23887         0.42251         5.39616
LJ          -3.33235        -1.06961        -3.86435
LJ           1.70617        -5.36796        -2.81235
LJ           1.87243        -5.98358        0.256631
LJ            5.2081         5.82086        0.100708
LJ           -3.4486        -5.92715         3.07282
LJ           2.20566         -3.0605         3.97435
LJ           -3.2116       -0.829907       -0.285751
LJ           4.33196         5.12454         -3.2665
LJ          -6.26643        -5.67251         2.81581
LJ           4.62098       -0.902787        -4.51233
LJ           3.77209        -1.87317         5.51349
LJ          -2.47292       -0.257379        -6.14418
LJ         -0.848902         -4.2913         6.29472
LJ          -1.39904        0.199825         0.90766
LJ          -1.27045        -3.42104        0.681568
LJ          -5.85899        0.115863         6.09129
LJ          -4.29528        -5.58682        -6.25222
LJ           1.37426        -4.28982         6.00891
LJ           1.22882        -4.12938         1.66517
LJ          -6.34207       -0.608167        -4.39507
LJ       0.000303962        -5.16987         3.60789
LJ          -1.20044        -5.34349         3.65926
LJ           -2.3356         6.19209        0.206404
LJ          -3.75242         3.30394         3.67953
LJ         -0.512179       -0.339088        -1.43042
LJ           1.96172           0.917         2.79983
LJ          -2.39087         2.07463        -6.12858
LJ          0.171754         3.85112          -5.109
LJ          -1.95744         -5.9981        -3.88718
LJ            -4.741         4.65334        0.302885
LJ          -4.95704        -5.93748       -0.929013
LJ           4.78206         2.79055        -4.58727
LJ          -3.33368        -3.72764        0.886438
LJ          -3.46732         1.76217         4.90304
LJ          -4.17587        -2.84673        0.412637
LJ           3.61133        -6.40104        -6.10026
LJ          -4.66249        -2.96553         5.47648
LJ          -1.00025         1.31139       -0.443431
LJ            -6.166         4.20725       0.0294614
LJ          -6.23169        0.359458        -5.02978
LJ          -2.15749        -5.58231        -4.06239
LJ             1.334        -5.74804         -0.2258
LJ           6.35098        -2.15903        0.494522
LJ          -1.94144         2.17451         4.97469
LJ           4.14522       -0.704742         1.30123
LJ             2.441        -5.56547         -5.1711
LJ           3.41766        -2.39219         2.38111
LJ           6.33645         -1.9425         -3.7638
LJ           -5.9522       -0.878916          4.4727
LJ           -4.0974        -4.85334        -2.15554
LJ          -2.56519         -4.3194         3.37516
LJ          -1.40053        -1.94442         5.26893
LJ            4.5312        -5.29877        -2.72065
LJ          -4.40771         -5.7116         1.13871
LJ          -3.70295         2.42891        -4.89163
LJ         -0.821194        -1.94508        0.067726
LJ           2.84286        -4.54522         -3.5728
LJ           3.31796          2.5878        -3.43091
LJ           3.89828        -1.74946        0.376924
LJ          -3.77245        -4.85504         2.97272
LJ          -0.59945        -5.90129         -4.3126
LJ          -4.82372       -0.581302        -1.79251
LJ           1.26102        -5.86114        -4.99444
LJ          -4.17333         5.20972         4.69372
LJ          0.895857        -5.56339        -1.22924
LJ           1.93297         4.86838         3.19507
LJ          -2.74221        -5.81091          1.3492
LJ          -2.23045         2.38751         2.31148
LJ          -2.37955         -3.5883         1.87786
LJ          -2.74437        -6.16598        0.133409
LJ         -0.928961         -2.7324         1.43962
LJ            1.4199         3.95232        -4.77698
LJ          0.347505        -3.21159         -2.6096
LJ          -6.20945          3.0209         -2.4598
LJ           4.04969        -1.80751        -4.34991
LJ           3.80066         -2.6827        -5.11225
LJ          -3.06245       -0.174747         3.57729
LJ         -0.127119        -1.57046         5.40809
LJ           4.27982        -4.62535         3.60912
LJ          -6.00709       -0.607096         4.47898
LJ           5.46836        0.995247        -4.90461
LJ            3.1403         3.08416         3.60329
LJ         -0.705681         5.27769         3.16368
LJ           1.19878         2.42889        0.327652
LJ         -0.814998        -3.30944         6.05128
LJ          -5.60139          3.3566         2.82258
LJ         -0.827896       -0.689319         3.66857
LJ           4.12604        -0.27985        -6.15324
LJ           4.06006        -5.22718        -5.32812
LJ          -5.41627         3.62299         1.14535
LJ          -3.77726         6.31651          -1.957
LJ            1.2282        0.234738        -2.15974
LJ          -2.62594        -1.88903        -5.32053
LJ           4.95217        -5.13256        -2.04572
LJ           6.29549        -5.87928         -6.2682
LJ         -0.221362         5.13059         4.54465
LJ          0.441207        -5.24007        -2.14131
LJ         -0.984601      -0.0927785       -0.333471
LJ          -3.01921         6.46102         6.15957
LJ           0.63153        -2.81088        -0.46772
LJ           1.23858         2.73294         5.40127
LJ          -2.27903        -4.99702        -1.70917
LJ          -5.08205        -6.35518         4.42496
LJ           2.45566        -2.25658        -4.92847
