108
#Comment!
LJ            1.2302      -0.0332091        -3.21055
LJ           4.73269        -1.24282         1.32549
LJ           2.22081       -0.816685          1.3215
LJ           5.01735         3.77649         1.67552
LJ          -2.97993        -4.46857         5.49748
LJ           3.31909         5.88247        0.781087
LJ          -2.25875         -1.2729         4.46664
LJ           4.82656         -1.8896        -3.51209
LJ         -0.224093         5.72828         1.33948
LJ          -3.93534        0.238799        -5.78719
LJ          -4.75858       -0.875797        -5.52239
LJ          -3.83966         1.59899       -0.880203
LJ           0.77987         4.21675        -1.30528
LJ          -4.64309        0.952552        0.901586
LJ          -2.29589        0.780299        -5.59686
LJ          -1.09535        -4.01342         1.48915
LJ          0.861819        -4.87387         5.97023
LJ          -1.23733         2.62566        -4.45159
LJ           -3.7666        -2.54276         5.41622
LJ          -3.46704         1.35414        -4.73622
LJ          -1.95961        0.862759         2.51219
LJ           4.49475         5.90191         1.70254
LJ           -5.8215         0.81337        -4.40447
LJ            1.2341        -5.11705         3.48932
LJ           -2.0922        -3.83297         0.99406
LJ           5.52715        -5.09115        -3.13778
LJ          -5.32918         4.16019        -2.37909
LJ           -6.1634        -1.40331        -3.94685
LJ           1.18885        -4.98323        0.517642
LJ           1.94885       -0.128332         5.11785
LJ           1.92813         3.88717        -3.48499
LJ           4.20908        -6.19047       -0.351964
LJ           5.97654        -2.57671         4.15861
LJ           3.36159        -2.20313       -0.758038
LJ           5.12105         5.30724         1.02043
LJ         -0.353922       -0.950379         5.90011
LJ          -1.72678         5.88851         4.17927
LJ          -4.24101        -0.29168         1.93211
LJ          -2.61378        -1.29374         6.16744
LJ          -6.15913         4.53706      -0.0030243
LJ           2.38492        -3.49604        -3.57695
LJ          -1.91045        -5.74773         4.78681
LJ          0.714875         -4.2358        -3.27756
LJ          -5.12391        0.509317         2.15534
LJ          -5.38394         6.42335        -5.38276
LJ           4.94143          2.1451         1.18612
LJ          -5.47805        -3.00936      -0.0934549
LJ          -2.38607         0.91118           6.065
LJ           0.63063       -0.624022         5.27781
LJ           6.10463        -1.98836        -2.37961
LJ         -0.994511        -3.88086       -0.486893
LJ          -1.77147        -4.67703        -2.87742
LJ          -1.68278         2.24119        -2.00956
LJ           3.18849         5.43839        -1.01759
LJ           3.45117         -6.4318        -2.94756
LJ          -6.11975         4.54949         5.24499
LJ           1.96462         3.50632        -4.55153
LJ          -3.85601         5.67004        -1.38185
LJ           1.18349        -3.10008       0.0415656
LJ           6.21775         4.55197        -1.09655
LJ          0.285507        0.224785         4.45657
LJ          -3.53944         3.96057         4.04376
LJ          -5.45419         5.57146         5.68145
LJ           3.40396         6.33452         1.67736
LJ           6.19735        -4.37246         3.37654
LJ           3.39822        -4.97194        -3.08058
LJ           4.17511        -1.79788        -2.17496
LJ          0.904052         2.10517         -2.2031
LJ           5.01472        -1.27443        -2.61831
LJ           0.31486         4.08015         3.74145
LJ          -2.80884       0.0645108         1.41347
LJ          -5.01753        -0.99616         4.38338
LJ          -6.35582        -2.19647       -0.909206
LJ          0.123355        -4.47565        -5.34613
LJ          -3.45144        -1.30303        -3.86709
LJ           2.63062        0.872821        -3.26507
LJ          -6.25819         -6.3918        -3.38716
LJ         -0.887245        -1.30855         5.01265
LJ          -4.11417        -6.21518        -4.69632
LJ          -1.33496        -3.77551        -5.11479
LJ         -0.608381        -1.44959        -2.97817
LJ           5.78007       -0.858716        -3.31446
LJ           3.13243         1.63588        -2.51351
LJ          -3.22507       -0.433225         4.79624
LJ          -1.25514         4.08301         5.38828
LJ          -3.46374       -0.480129       -0.565342
LJ          -2.39554       -0.614138         2.13647
LJ           6.18694         1.44266         4.67637
LJ           4.38694       -0.626801        -1.73684
LJ          0.330996         4.34971        -2.42931
LJ          -4.41903         3.55416         4.56952
LJ           5.52971       0.0786818        -2.84006
LJ          -1.20661         4.97043        -6.33582
LJ           2.27582         1.84396         2.59753
LJ          -3.27297        -5.81372        -5.32538
LJ           4.99964        -1.43522        -1.29453
LJ          -1.18518        -1.03845         4.08213
LJ        -0.0613205        -3.16565         1.31175
LJ         -0.218892        -6.15286         5.91061
LJ           4.73685         4.26335       -0.946268
LJ          -3.66649        0.754226          1.7453
LJ           3.71347        0.187996        0.433397
LJ           4.28847         1.30393        -2.27128
LJ          -2.76904       -0.388566        0.183675
LJ          -5.65485         3.81971        0.601439
LJ           4.49414         2.23386         2.22772
LJ         -0.189934        -4.99989        -1.41232
LJ          -5.97051         1.16106        -5.44347
