108
#Comment!
LJ           -3.1116         -3.2026        -3.07817
LJ          -1.64145        -2.62572        -2.99855
LJ          -3.04214        -2.11792         -2.3279
LJ          -1.41312        -3.75295        -1.81192
LJ         -0.844765        -3.03563        -2.91529
LJ          0.872385        -2.31445        -3.68373
LJ          -1.41882        -2.18023        -1.60286
LJ        -0.0339641        -2.85954        -2.08792
LJ            2.1836        -3.21374         -3.4289
LJ           1.48434        -1.86649        -2.53496
LJ          0.798874        -3.14144        -2.76552
LJ           1.67255        -3.21801        -1.90544
LJ          -3.59553        -1.15476        -2.54895
LJ          -1.66229        0.127153        -2.99277
LJ          -2.80205        0.816819        -1.69416
LJ          -2.31018        -1.71115        -1.69406
LJ         -0.703747       -0.601248        -2.60912
LJ         0.0935584       -0.769696          -3.471
LJ          -1.13642        0.300485        -2.21084
LJ          0.343147       -0.806378        -2.07883
LJ          0.936019        -1.05832        -2.95594
LJ           1.39759        0.711312        -2.48683
LJ           1.35923       -0.477325        -1.60124
LJ           3.04193       -0.977477        -1.67158
LJ          -3.53444          0.8904        -3.46872
LJ          -3.02041         2.10774        -3.23338
LJ          -3.20862         1.34228        -2.44114
LJ          -2.08199         1.26453        -2.28206
LJ          -1.59141         1.29734        -3.21417
LJ         -0.464263         1.66825        -2.97072
LJ          -1.62738         2.22251        -2.71246
LJ         -0.529258         1.05486        -2.16181
LJ          0.603357        0.441465        -1.90175
LJ           1.24522          1.5743        -2.89517
LJ          0.461874         1.93943        -2.45103
LJ           1.73921         1.60148        -1.92412
LJ          -2.57629        -3.64475       -0.668394
LJ          -1.96621        -2.92728        -1.02523
LJ          -3.35607        -3.21351     0.000522946
LJ          -2.03488        -2.45739         0.13662
LJ         -0.925248        -2.78714        -1.08097
LJ         0.0550338         -1.6929        -1.41119
LJ          -1.47936       -0.960155        -0.46813
LJ          0.153061        -2.86325       -0.187847
LJ          0.446024        -2.63862        -1.08343
LJ           3.14489        -1.58393       -0.735539
LJ           1.04638        -1.97622       -0.343984
LJ           1.52589        -2.85069        0.215839
LJ          -3.21506       -0.130996        -1.51932
LJ          -2.22165        0.013863        -1.39732
LJ          -4.13109        0.228112      -0.0788778
LJ          -2.56618        -0.68647       -0.916084
LJ            -0.304        -1.79614        -2.52674
LJ         -0.109739        0.524008        -1.17791
LJ         -0.645546       -0.300569         0.29145
LJ          0.167014        -1.40402        0.345377
LJ           1.52109        -1.38794        -1.44501
LJ           2.11002        0.259087        -1.51471
LJ           0.46676        -0.40201       -0.423344
LJ           1.44414       -0.974794       -0.168091
LJ          -3.14577         1.34749        -0.98064
LJ          -1.53737          1.8329        -1.60443
LJ           -4.0406         2.59451       -0.340111
LJ          -2.28924        0.430477       -0.190881
LJ          -1.27567        0.152941       -0.506271
LJ         -0.127789         1.81112        -1.55439
LJ         -0.813624         1.42145       -0.397094
LJ          0.137151         1.59012       -0.580511
LJ          0.950616         1.34577        -1.17982
LJ           1.41712         2.24733       -0.850232
LJ          0.709637         1.73431        0.373408
LJ           1.95395         1.79359      -0.0374083
LJ           -2.8186        -2.99773           1.043
LJ          -2.21918        -1.94715         1.65255
LJ          -2.98954        -1.44223         2.35543
LJ          -2.40494        -3.62657         1.78503
LJ         -0.318299        -3.77484         1.68248
LJ          -0.27469        -2.65893        0.982118
LJ         -0.371231        -1.08974         2.12573
LJ          0.549867        -2.95773         1.99927
LJ          0.500577        -3.36445        0.633301
LJ           2.17008        -2.30383        0.844393
LJ           1.42515        -2.46209         1.69715
LJ           1.93302        -3.44255         2.06298
LJ          -3.17081        -1.04512        0.956761
LJ           -2.8352      0.00521196         0.76993
LJ          -2.72211        0.426739         2.12784
LJ          -2.42372       -0.697635         1.72893
LJ          -1.71816       -0.314886         0.94346
LJ         -0.352358       -0.696152         1.27857
LJ          -1.22551       -0.270858         2.00823
LJ          0.583772        -1.18568         3.11684
LJ           1.33826         -1.4809        0.817604
LJ           2.13282        0.702988        0.588072
LJ            1.6695        0.633363         2.15301
LJ            1.9632       -0.839413         1.39066
LJ          -3.03023          1.0652        0.696637
LJ          -2.17503          2.4467        0.977048
LJ          -2.60614         1.42465         2.79553
LJ          -1.67434         1.30844         1.44827
LJ         -0.436447        0.731052         1.63365
LJ         0.0939405         2.68483         1.04564
LJ         -0.748522         1.92399         2.64023
LJ         -0.450297        0.944027         2.69962
LJ           1.49081         1.42812         1.08132
LJ           2.58531         1.65124         1.22361
LJ          0.772743         1.19782         2.03887
LJ            2.6401        0.930781         2.65019
