108
#Comment!
LJ          -2.88213       0.0219311          6.4185
LJ           2.64134         3.96481         4.93787
LJ           2.19084       -0.264072         2.97917
LJ           5.64237       -0.120525         1.39093
LJ          -1.72487        -1.38514        0.185986
LJ           -2.9778        -1.04566        -4.19682
LJ           -6.1195        -4.79836         3.50698
LJ          -3.29281         5.41906         1.89754
LJ           5.13496        -2.85767         4.36189
LJ          -3.08075        -4.26375       -0.597286
LJ           2.12721         1.90096         1.24031
LJ           4.43595         2.29071        -4.20739
LJ          -5.98017        -5.43043        -3.85081
LJ          -4.77365         3.40339        -6.07868
LJ           5.75682           3.777        -5.27249
LJ           4.75438         6.29878         4.00911
LJ         -0.316397       0.0584016        -1.74231
LJ         -0.651854        -4.22331        -1.50804
LJ          -4.93237         1.54929         1.17526
LJ          -6.17077         1.85996         4.49701
LJ           3.51515        -1.85635         -1.2958
LJ          -2.01407         2.38044        -3.83585
LJ           1.56967        -1.96726         3.11509
LJ           4.89015       -0.908104         2.31247
LJ          -4.97697        -2.85888        -4.66107
LJ           1.31461         3.49223        -5.82228
LJ           3.99502        0.772707         2.60651
LJ           -1.2396        -1.76553        0.997167
LJ           -4.5727        -1.86415         6.04784
LJ          -3.08697        -3.91206        -5.62728
LJ           2.52553        -5.59197        -1.72517
LJ          -5.09644         -3.7577       -0.135668
LJ           2.72918        -5.12713          2.5583
LJ           3.62912          4.7364         -4.0599
LJ          -3.37506         3.51383         4.10682
LJ          -3.11403         3.86819        -1.80349
LJ          -1.12635         3.95377         2.66942
LJ          -3.32365        -2.50876         4.47495
LJ          -5.61682         5.63862        0.229389
LJ          -2.86618        -2.14267         3.55613
LJ           4.70621        -2.19655        0.999361
LJ           1.06367        -4.86254         3.69412
LJ              2.92         6.09001         -3.5888
LJ          -2.25798        -1.24379        -6.44218
LJ          0.269294         1.03366        0.734295
LJ          0.849073        -2.52212        -3.20937
LJ          -4.13719         4.23107        -6.21957
LJ           1.19188        -1.38548        -3.24173
LJ          -3.61733         -4.9398         -4.5587
LJ          -5.14095         2.04922         1.69105
LJ           2.99912        0.512302         4.61918
LJ          -6.02849        0.337839         3.84884
LJ           2.41548         6.00825        -4.67441
LJ          -1.74664        -3.15772       -0.464832
LJ          -4.73559          4.5654        -3.20018
LJ           3.35309         2.95123       -0.745132
LJ           2.35023         4.27439        -5.37327
LJ           2.14524        -4.53604       -0.149903
LJ           1.81722          2.8354        -5.12207
LJ          -3.56637        -5.36103        -3.21171
LJ          -6.45798         5.73407        -2.93803
LJ          -5.86433        -5.64162       -0.624019
LJ          -1.31231         4.69392       0.0229137
LJ          0.778633        -4.16917       -0.110907
LJ          -4.94446        -5.25505        -1.34499
LJ           2.35742        -3.01411        -4.31067
LJ           2.86757         3.71418        -4.02867
LJ           3.34537         -1.0851         1.39777
LJ          -6.43879         5.72642        -4.71493
LJ          -5.38856        -4.48357         1.51494
LJ          -0.12974        -6.02073         1.70437
LJ          -5.44358        -5.20171         3.22658
LJ          -4.42132         2.64643       -0.820335
LJ           6.16543         5.71473          1.1715
LJ          -5.19171        -5.08801         -5.2034
LJ          -1.59821         2.38393        -3.82397
LJ           3.92276         4.85075        -4.66204
LJ           1.93499        -2.59267         3.97976
LJ          0.877639        -4.15532        -3.87551
LJ           5.48507        -4.44865         1.45579
LJ          0.478717        -1.72474         -5.9334
LJ           5.30255         6.03235        -2.82889
LJ           2.37994         1.24702        -2.01929
LJ            3.3609        -4.12816        -5.46627
LJ         0.0134719         5.58857        -1.61815
LJ         -0.678033         1.69351         3.26694
LJ           5.97776         1.49981          2.1849
LJ          -3.86254         5.93801          2.3871
LJ           5.00525         3.43603          4.6576
LJ          -3.95026         4.95956           4.841
LJ           1.86474         5.75727         5.38723
LJ          -6.31677         3.43933        -4.86674
LJ           2.07342         4.90819         1.77194
LJ          -6.37388        -6.36735         1.85724
LJ          -3.55989          4.9379        -2.77394
LJ         -0.607758         5.32154       -0.289877
LJ           4.56094        -3.18074         1.09475
LJ           4.79416        -3.10554        0.141835
LJ           3.37502       -0.695818         4.82579
LJ           5.94866        -6.33578         3.28072
LJ            3.5799       -0.815783        -5.10009
LJ          -5.91887         6.14012         5.75154
LJ          -3.43503        -1.80536        -6.01542
LJ          -6.16351      -0.0592926         6.13421
LJ           3.19433         2.29785         4.00776
LJ           3.83704        -3.20403         5.27124
LJ         -0.588497         4.41661        -2.92056
LJ           2.29246         4.11374        -2.09583
