108
#Comment!
LJ          0.331391        0.597962        -3.66745
LJ          -6.31345        0.295176          -5.583
LJ           6.12286       -0.272679         0.13229
LJ           4.01237          5.0212        -4.49006
LJ           4.61901         1.22713        -1.62724
LJ          -6.37398         1.66709         1.03431
LJ         -0.967407        -1.50825         1.15677
LJ            2.0043       -0.590163         -3.8334
LJ          -3.96659         6.43985         4.79073
LJ          -2.25566         -4.1605        -4.93649
LJ           1.32554         3.43825        -5.62521
LJ            -4.977         5.62413        -1.44278
LJ           3.68424        -2.35066        0.037713
LJ         0.0682083        -5.86047        -5.79508
LJ         -0.592985         5.16641        -3.40063
LJ          -4.07219         1.26336         2.60798
LJ           6.09632         -1.3732        -4.72936
LJ         0.0729622        -1.65171         5.48497
LJ          -2.87419        -0.99916        -2.64713
LJ           4.96716        -1.34139         2.20466
LJ          -1.21012         -3.7771        -4.98872
LJ           2.20092        -4.94806         3.70706
LJ           4.79278         2.99709         3.06149
LJ          -2.31666         4.63989         3.20971
LJ          -5.69181        0.641545         3.22441
LJ          -5.69694         -2.2293         3.99678
LJ           6.39227        -3.20891         3.78997
LJ          -3.85743         2.39482         4.72153
LJ           1.89229         2.10741         3.71073
LJ           1.13321        -4.90419        0.484342
LJ          0.808954         5.04358         -4.0958
LJ           3.01128        -4.75623         4.77382
LJ           5.29267         3.18214         5.52346
LJ        -0.0489923        -6.14146        -4.46917
LJ           5.94003      -0.0186638         3.36804
LJ            2.7599       -0.874681        0.203557
LJ          -2.39852        -5.83652         6.30466
LJ         -0.151833       -0.860629         1.60397
LJ          -2.33231       -0.320572         1.47298
LJ           -5.5399         2.17888        -0.46156
LJ           3.56005         -1.2431        -1.05679
LJ            5.8404        -2.92308         6.05732
LJ          -4.33662          2.3349       -0.926073
LJ          -1.83433        -2.43877         1.92963
LJ          0.737287        -2.07103         1.56682
LJ          -4.64323         1.95737         3.91195
LJ           5.31645       -0.894956        -2.53468
LJ          -3.10953        -2.60761        -3.26789
LJ           4.11844        -4.09369        -5.57078
LJ           4.62143        0.130078        0.599421
LJ          -4.25564       -0.356881           2.167
LJ          0.137648         2.42828        -5.02493
LJ           5.78849        -2.03983         2.72616
LJ           4.44797         1.69696        0.438195
LJ         -0.555823         4.49163        -2.44981
LJ          -1.47106        -3.57031          6.1934
LJ          -3.60512         1.07812        -2.85524
LJ            -5.629         2.16292        -3.83046
LJ          -4.82675        -6.08642         3.09066
LJ           4.31512       -0.942201      -0.0918258
LJ          -4.47332        -3.81126         5.36338
LJ          -2.29583         5.34442         5.56365
LJ           4.97328       -0.401955        -3.79026
LJ          -5.02586         1.67082        0.850284
LJ          -4.85699         4.00794      -0.0747769
LJ           2.71563        -5.46929         6.03343
LJ          -4.20048        0.775017       -0.344815
LJ           2.86193         2.47762         3.05178
LJ           3.06947        -2.06921         -1.6365
LJ           3.82284         2.75148         2.51865
LJ          -1.51066        0.714347         2.58833
LJ           1.40606       -0.989029      -0.0440212
LJ          -2.15783        -3.05329       -0.890958
LJ          -1.86699        -1.92098        0.594813
LJ          -5.63103         4.95047         4.65343
LJ           5.76752           3.284         1.21613
LJ         -0.564378        -6.39266        -2.64348
LJ          -1.21192        -2.49659          2.9928
LJ           2.84821         6.12301        -5.32639
LJ          -1.89368          -3.575         2.64653
LJ          0.234165       -0.572706         4.80505
LJ           3.75548         -3.2757        -2.06423
LJ           1.83203       -0.994274        -1.14082
LJ         -0.717317        -1.73651         2.28911
LJ           5.65379        -5.25864        -3.57948
LJ          -5.82566         1.35143         2.06379
LJ          0.514332        0.806311         2.59502
LJ         -0.457869       -0.533884        -3.05762
LJ            4.5175        -1.75237        -2.04781
LJ          0.202428        -5.60977         6.21269
LJ            3.9846        -5.84187          4.5056
LJ           6.23397        0.330472        -1.21799
LJ           2.60839         3.01586        -2.55826
LJ           3.02682         3.21877       -0.103344
LJ          -6.03314         4.07418         -1.2649
LJ           3.95685        -2.47491        -1.07135
LJ          -5.86332        0.861092        0.907904
LJ          -4.58786         4.90575        -2.01758
LJ         -0.740772        -2.72279       -0.417719
LJ           -4.7945         3.50283        -2.13899
LJ         -0.440244         1.22069         1.70373
LJ           2.18391        -1.88915       -0.419282
LJ           2.06144       -0.343779         5.89284
LJ         -0.441318         1.40483         0.56228
LJ           4.33822        0.827087         2.13706
LJ           4.13775          1.7199         1.64699
LJ           6.41188       -0.313307        -2.78366
LJ           4.28211         1.81686         2.59714
