108
#Comment!
LJ          -5.79944         2.45251        -4.61519
LJ         -0.256057        -2.93143        -5.73027
LJ           4.87296         5.80164       -0.720177
LJ           5.20187        -2.48777         5.29814
LJ           6.31441        -4.45096        -1.03399
LJ         -0.855919         1.59136       -0.880974
LJ          -5.28019        -6.42108         3.31933
LJ          0.607467         2.19822         5.02824
LJ           6.43748        -5.54476        -4.36174
LJ           5.78504        0.994404         -1.9697
LJ           5.16243        -2.96145         4.74267
LJ          -4.21669        -5.50716        -6.01194
LJ           5.93152         1.63516        -2.46198
LJ          0.769625         1.21957        -3.71363
LJ           5.13693         5.72498          5.7331
LJ           5.08278        -4.09963        -5.19009
LJ          0.562971        -3.44062        -5.19536
LJ         -0.164029        -3.52794        -1.21194
LJ           2.23101         0.20419        -3.40931
LJ           4.03131         3.75594         5.88299
LJ          -3.04603        -1.11733         2.31157
LJ           2.94444        -4.41125         -2.4691
LJ           3.07121          6.4417        -5.36735
LJ           1.78922        -5.84143       -0.838105
LJ          0.343167        -2.53837         1.69138
LJ          -1.64611         1.12804        0.140582
LJ           1.94681         5.09556        -1.29673
LJ           3.81557        -2.23726         5.38322
LJ          -4.90418       -0.750782          0.4269
LJ           2.44004         5.75413         5.48413
LJ          -2.89438        -6.35219         1.98015
LJ         -0.650417         3.06601        -2.72447
LJ         -0.234444        -3.85519        -6.08464
LJ          -5.00445          4.7139         -2.9933
LJ           1.07801         5.53824         2.05437
LJ           4.63152        -2.56649         1.98512
LJ          -2.99843        -0.30356         2.13185
LJ           4.12845        -5.14196         5.74485
LJ          -6.04172        -4.46546        -4.52576
LJ         -0.498068         3.64371         1.21219
LJ           3.21441        -2.57935         1.86757
LJ          0.775156         5.06807        0.453049
LJ          -4.20388       -0.607152        0.863745
LJ           1.25224        -2.61879        -4.14715
LJ           3.86121        0.767707        -1.08927
LJ          -1.89825        -3.77144        -3.11014
LJ          -2.59847         4.75571        -2.22808
LJ          -3.04644        -4.36335         3.90953
LJ          0.595028          4.0017         4.15422
LJ          -1.73559         -4.8932        -1.92177
LJ          -5.62763        -5.98554         0.83809
LJ           5.51343        -2.84754         1.23531
LJ           1.32166        -6.37207         2.38728
LJ           3.46995        0.487061         4.07008
LJ           1.02725      -0.0989207        -5.22564
LJ           -2.2419         5.65611          1.8117
LJ           2.27597         3.10375        -2.46702
LJ           3.51643         1.01197        -3.39987
LJ           3.25142         2.36698         5.83984
LJ           2.76912        -1.75346         3.47176
LJ           3.51305        0.146329        -5.37305
LJ           5.86122        -5.65526         4.52491
LJ           5.54917         4.82474        -3.73368
LJ          -3.19566        -2.22818         4.00603
LJ          -6.36627        -1.79031        -3.43557
LJ          -2.77335         1.65794        0.681594
LJ          -2.04196         5.21416        -4.00313
LJ          -1.08092         -3.5728        -1.73603
LJ          -2.55251        -6.27477         3.37336
LJ          -1.34298         3.96142         3.97184
LJ           -3.5888         5.76909         3.14965
LJ          -5.52516        -1.64589        -4.56622
LJ           5.02302         1.34994         4.92205
LJ         0.0611326        0.703835         4.72205
LJ           3.74304         0.71192        0.747684
LJ          -4.03982        -3.77637         6.25088
LJ          -1.61009       -0.257521         1.90729
LJ          -5.03406         3.54734         2.64508
LJ           1.80511         6.12051         5.75016
LJ           2.72391         2.98377        -5.42965
LJ          -1.44001        -5.60344        -5.13126
LJ          0.340543         1.86082         1.21372
LJ          -4.61599         5.18466        0.887358
LJ          -2.45727          5.2011        -6.30556
LJ          -4.32522        -5.27202         1.81706
LJ         -0.764592       -0.820003        -1.43728
LJ            4.7631         4.96986        0.515665
LJ          -2.27661        -3.16585         6.18318
LJ           6.20623        -4.50893        0.765282
LJ          -2.79675         5.64654        -5.49841
LJ           3.09653         5.99518        -3.35645
LJ          -3.74426         2.17881         2.15908
LJ         -0.792486       -0.480285        -3.39154
LJ          -2.14628         4.84141         2.75299
LJ           5.94535        -5.12728       -0.724643
LJ          -2.96091        -5.10078        -1.15264
LJ           1.91704        -2.07914         2.08825
LJ          -1.66694        0.918909         4.38719
LJ           4.96354       -0.338834         3.97512
LJ           2.30544         1.52157        -2.84584
LJ           2.91131        -2.41903        -6.23572
LJ            2.7852         1.33584      -0.0681214
LJ           5.38369        -6.35217         4.64461
LJ          -5.36336         1.13363         3.63783
LJ          0.170751         -2.1195        -2.36996
LJ           5.49334       -0.421046        -5.58545
LJ           -6.0946         4.14133        -4.37239
LJ           4.39924         1.60592         4.92695
