108
#Comment!
LJ           1.01259        0.502178        -2.42466
LJ           4.15263        -1.11847         4.38886
LJ           3.84535        0.578625         0.13384
LJ           4.54507         2.21097        0.244156
LJ           -4.4326        -5.94455        -4.70813
LJ           4.04626         3.22936        0.759697
LJ          -2.99539        -0.45402         3.74985
LJ           4.18016         -1.8342        -4.13242
LJ          -2.65114         3.04196         2.28862
LJ          -3.58873        -0.55341        -5.89566
LJ          -2.11165        0.541269        -5.42714
LJ          -3.29302         3.91115        0.997334
LJ           1.30977        -6.08955       -0.633592
LJ          -3.57441        -2.59388        -0.98839
LJ          -1.69646         2.00106        -5.14539
LJ         -0.876433        -2.30203         3.24422
LJ          -1.12615        -3.00652         -6.4053
LJ         -0.646331         5.84297        -5.37108
LJ          -2.33229        -2.80859        -5.30993
LJ           -4.2137         5.92604         6.35675
LJ          -2.36876        0.905487        0.559471
LJ           3.58005         5.67648          0.9201
LJ            6.0447         1.27556          6.3354
LJ           1.08938        -3.75018          2.1025
LJ          -3.30324        -1.56346      -0.0289114
LJ           6.30508         6.27138       -0.744835
LJ          -5.58464        -5.93852       -0.387985
LJ          -4.87996        -0.58555         -5.4078
LJ          0.655766         5.17583         1.28862
LJ            1.2001       -0.453787         3.47579
LJ           1.62379         4.40154        -4.32155
LJ           3.15259          6.0737      -0.0709329
LJ           5.18879       -0.252081          4.6103
LJ            3.4808        -2.69547        -2.45803
LJ           5.24726         4.47597         1.89229
LJ        0.00697933        -1.35222        -3.69545
LJ          -3.75227        -6.40114         5.03369
LJ          -3.71407      -0.0712862         1.90535
LJ          -1.26912       -0.400141         5.22505
LJ          -5.50842         4.59201       -0.940358
LJ           5.65614        -2.81619        -2.43826
LJ           1.37608        -4.46783         4.23319
LJ         -0.152114        -2.07832        -1.37782
LJ          -2.77857       -0.572035         2.32608
LJ           4.15137          3.1649         5.31576
LJ           5.92652        0.708005         0.37003
LJ          -5.05108        -3.33759        -2.89221
LJ          -3.47981        -1.18741         6.06435
LJ           3.37111        -1.45627         5.03527
LJ           4.81799        0.333307        -3.35774
LJ          -2.05475        -3.41816        0.471112
LJ          -2.69464         6.04406        -3.22716
LJ           -3.8074         6.19372        -2.67249
LJ            3.5483         4.84864        0.297949
LJ           1.88325         5.63717        -2.18682
LJ           -3.0375         6.04946         5.81422
LJ           4.59634         3.06898        -3.40502
LJ          -4.35818         4.48615        -2.50598
LJ           3.93236        -5.45994        0.594097
LJ          -2.98149        -5.54028       -0.610585
LJ          -2.47199      -0.0494909        -6.35681
LJ          -2.92914         4.14141         1.91228
LJ          -5.63616          5.7898        -6.31375
LJ           4.68627          6.1241         1.06397
LJ           5.99418         6.24231         1.70412
LJ           3.29696         6.29746        -1.45365
LJ           4.11195        -3.45354       -0.181275
LJ           1.67774         2.71926         -4.9443
LJ           5.45561        -1.76931        -2.65003
LJ           2.40225         3.46966         2.48013
LJ          -1.14814         1.28136          1.3453
LJ          -3.28468        -1.12458          1.4937
LJ          -5.72097        -4.34892        -2.66342
LJ          -2.22544        -3.70519          5.4491
LJ          -4.95753        -3.56279        -3.97144
LJ           1.76279        -2.03968       0.0250443
LJ           3.93419         1.63497         5.37425
LJ           -1.8907        -1.95828         4.28509
LJ          -5.60163        -6.43211        -3.96478
LJ          -2.72197        -3.96925         -6.2573
LJ          0.574859       -0.644087        -5.44692
LJ           3.96796        -1.89334         -2.7459
LJ           3.49991        0.222822       -0.769609
LJ          -2.13629       -0.939755         4.67448
LJ           1.29694         5.09028        -5.88731
LJ          -3.80149       -0.619701        0.709811
LJ          -1.47041         1.35957         2.43592
LJ          -4.60079         4.56924        -6.01499
LJ           3.54731        -1.77323        -1.54408
LJ           2.00376         5.67957      -0.0728856
LJ          -5.54393         4.38063         4.33571
LJ           5.96667       -0.245673        -2.36044
LJ          -5.67175         4.82546        -4.46593
LJ           1.87524         1.42722        0.375824
LJ          -4.72876        -6.02103        -3.46989
LJ           4.51857        -2.24335        -1.77675
LJ           -3.1223        -1.46932         3.32264
LJ          -1.02833        -5.42904         4.68215
LJ         -0.927347        -4.25339        -4.83205
LJ           6.22074         4.51571         -1.1489
LJ          -1.60807        0.150875         1.24899
LJ           2.39142        0.287815       -0.391815
LJ           3.64134        0.822254        -4.11214
LJ          -1.02826         0.59552        0.551897
LJ          -6.23389         2.72719         1.68569
LJ           4.44137          3.9986         1.58763
LJ          -3.05663        -3.30932        -2.28522
LJ          -5.79695         1.47952         6.15903
