108
#Comment!
LJ          0.247165        0.315681        -3.17098
LJ           6.34079        0.074803        -6.02675
LJ           5.83098       -0.153639        0.191247
LJ           4.51094         4.66505        -3.65629
LJ           5.16113         2.30265        -2.25129
LJ           6.26134         1.69611         1.04456
LJ          -1.32154        -1.39461         1.52313
LJ           2.38642       -0.748317        -3.84358
LJ          -4.30474         6.06986         4.08513
LJ          -2.84465        -3.99686        -4.85459
LJ          0.897881         3.02521         -5.6493
LJ          -4.60087         5.50219        -1.07737
LJ            3.3499        -3.15681       0.0949387
LJ         -0.445719        -5.60716        -4.99015
LJ         -0.672043         4.85703        -3.80851
LJ          -3.42167        0.652554         3.23025
LJ          -5.90194        -1.30818        -4.87686
LJ         0.0482393        -2.21109         5.66117
LJ          -2.77616        -1.09047        -3.03626
LJ           5.74249        -1.74857         2.79929
LJ          -1.64116        -4.19513        -5.52407
LJ           2.49292        -5.56786         3.27653
LJ           5.21534         2.78646         3.20779
LJ           -1.7317         5.49746         2.87939
LJ          -5.71489        0.868725         2.72382
LJ          -5.47669        -2.97545         3.46642
LJ            6.2593        -3.47915         2.87728
LJ          -4.00776         1.90813         5.04252
LJ           1.35214         2.18657          3.0919
LJ          0.205597        -3.42698         0.36205
LJ           1.03471         4.99094        -4.21479
LJ            3.0661        -4.83989         4.07031
LJ           5.28673         3.84466         5.18889
LJ          0.519169        -5.63397        -4.18285
LJ           5.92022         1.20409         2.33857
LJ           2.36587       -0.868978        0.108091
LJ          -2.03306        -4.92045        -6.03169
LJ         -0.240451       -0.807453         1.75587
LJ          -2.49007       -0.951692         1.83668
LJ          -5.79079         2.85065       -0.411427
LJ           3.68673        -1.20417        -1.17945
LJ           5.21761        -3.13329         5.76292
LJ          -3.75149         1.68954        -1.40514
LJ          -1.84301         -1.9386         2.31395
LJ          0.307944        -1.52861         2.27364
LJ          -4.78911         1.69791         3.68535
LJ           5.77094        -1.45256        -2.59535
LJ          -3.35087         -2.4922        -3.96358
LJ           3.60185        -4.40634         -5.9149
LJ           4.48478       -0.101486         1.85052
LJ          -3.67582        -1.00599         2.26484
LJ         -0.558484         2.78207        -4.66443
LJ           6.29966        -2.95468         1.96188
LJ           4.01015         2.31489        0.215462
LJ         -0.183926         4.62751         -2.2597
LJ          -1.65595        -3.94545          6.4135
LJ          -4.14539         1.57382        -2.32363
LJ          -5.36397         2.49704        -3.79834
LJ          -5.11384         6.38363         3.61453
LJ           3.18191        -1.55095        0.120028
LJ          -4.28435        -3.16591         5.47575
LJ          -2.26092          5.2227         5.08691
LJ           5.27872        0.747837        -3.80258
LJ          -5.61618         2.06233        0.868413
LJ          -5.50995         4.13256       -0.475314
LJ           3.12268        -5.24641         -5.9694
LJ          -4.60056          1.9898        0.060396
LJ           2.74385         2.55375         3.84574
LJ           3.36883          -2.042        -1.88609
LJ           3.97308         2.93242         2.26334
LJ          -1.22105        0.569732         2.25164
LJ           1.00499       -0.766895        0.280475
LJ          -2.26831        -3.21783        -1.43328
LJ          -2.42058        -2.07889         1.23116
LJ          -5.88219          5.4136         4.73357
LJ           5.20446         2.13952         1.38682
LJ          0.087551        -5.34593        -1.35817
LJ          -1.00661        -2.55118         3.06176
LJ           3.59807         6.00321        -5.19262
LJ          -2.41977        -3.29637         2.90475
LJ           0.32276       -0.866039         4.59892
LJ           3.68483        -3.32586        -2.01194
LJ           2.03537       -0.403687       -0.951414
LJ         -0.822831        -1.58206         2.44386
LJ           5.21985        -5.50204        -3.96269
LJ          -6.01484         1.24585         1.77758
LJ         0.0597206        0.869314         2.69382
LJ         -0.893678        -1.37353        -3.18571
LJ           4.42769        -2.19337        -2.62487
LJ          0.460886        -5.85569         5.31595
LJ           4.78083         6.06838         4.61948
LJ            6.1255        0.160938         -1.4032
LJ           2.94149         3.52774        -2.79785
LJ           3.00457         2.81016       -0.209035
LJ          -5.86994         4.07346        -1.43131
LJ           4.11391        -2.35155        -1.11727
LJ          -5.39854        0.149896         1.44404
LJ          -3.96963         5.23419        -2.95817
LJ         -0.405055        -3.15941       -0.304089
LJ          -5.07284         3.59255        -1.87974
LJ         0.0545182         1.35338         1.70116
LJ           2.59841         -1.4197       -0.953089
LJ           2.29037       -0.165987         6.33204
LJ          -0.51257         1.43247        0.639469
LJ            4.5029        0.893313          2.4321
LJ           3.63487         2.02436         1.45015
LJ          -5.83982       -0.621354        -2.77887
LJ           4.75683         1.72339         3.55616
