108
#Comment!
LJ           2.28488         3.18078         5.78913
LJ          -5.35021          5.6424        -4.19921
LJ          -3.07612        -2.95582         3.25454
LJ          -3.42727        -5.26631        -5.28253
LJ           2.62003        -4.64998         4.42457
LJ          -1.92555         5.01354        -1.13222
LJ           1.17837        -1.82658        -4.40215
LJ          -6.33501         3.89987        -1.66984
LJ          -1.91634         2.31334        -1.79074
LJ          -4.50351        -2.47661         2.39183
LJ          -1.77568        -2.61922         1.54812
LJ          -1.35873        -1.87479        -2.20821
LJ          -1.20562        -3.33057         5.30006
LJ           1.21443        -3.34042        -6.22336
LJ           2.95765        -1.90851         5.03779
LJ          -3.81042         1.45635       -0.638128
LJ           4.78653         2.14684         -6.1208
LJ          0.131805       -0.485637       -0.174771
LJ          0.305075         1.34829        -1.76159
LJ          -1.88779         5.90533       -0.776703
LJ         -0.387407         2.06031         5.84311
LJ          -5.55232        -1.68399         1.96309
LJ          -3.78572         4.47167         5.35911
LJ           5.52474         3.51994        -5.47126
LJ         -0.324603         2.81421         3.45649
LJ          0.628121        0.335791         3.53077
LJ           4.59886       -0.403484        0.487562
LJ           -5.0713        0.482639        -5.64487
LJ          -3.92439        -1.32664         3.78187
LJ          -1.96296         6.23983        -1.55196
LJ           -5.1492        -1.30762        -4.20279
LJ           4.61879        -4.23565          1.9682
LJ           4.00103       -0.325715        -4.78615
LJ         -0.494073        -2.31403         3.93475
LJ          -1.42368         4.54335         5.10512
LJ          -3.25998         2.42288           5.907
LJ          -3.94757         2.49065        -3.45865
LJ           3.98341         4.68281        -3.18296
LJ          -2.59454        0.154372        -4.32462
LJ            2.5409        0.674317         5.54575
LJ          -2.21902        -2.62102         4.92852
LJ           5.85471         -1.2432        -3.87391
LJ          -4.69449        -6.39064         4.15263
LJ          -3.08668        -4.10264        -1.41957
LJ          0.104926        -5.29287        -2.06412
LJ           2.12138         5.19731        -3.83726
LJ         -0.122888         3.81388        -4.71086
LJ           6.25265         5.89224         5.05706
LJ          -5.61251         3.63794         2.25477
LJ          -2.37653        -6.37502        0.235149
LJ          -3.34126         1.60315         4.95866
LJ           -4.3361         5.93584         1.53118
LJ          -3.47319         -1.0628         2.53751
LJ           4.90279        0.628551         4.17967
LJ           5.32659         -4.7455        -4.55987
LJ           3.27858       -0.146499         2.75175
LJ           2.07581        -4.39631          3.5501
LJ           -2.4389       -0.542435         -2.5818
LJ           2.84554         4.64536        -6.35708
LJ            4.5826         4.57882         1.35853
LJ          -1.22424        0.908205         3.02462
LJ          -2.25184         6.08238        -2.18737
LJ           5.54506        0.776665         3.40237
LJ          -1.35946         3.66817         5.46857
LJ           -4.2095        0.710045         1.98193
LJ           5.82257         4.35525        -1.99991
LJ           2.25527         6.42554          5.8334
LJ           1.38042         1.34985        -5.28453
LJ          -2.30994        -4.71025         1.96309
LJ           4.81854         2.49561        -1.14265
LJ           4.50194         2.89005        -2.90655
LJ          -4.93721         2.32304         1.57819
LJ          -2.13549       -0.476533        -1.68643
LJ           1.49624         1.84428        -1.58934
LJ          -5.02912        -3.19004       -0.440479
LJ          -2.81744         3.16104         -5.6902
LJ           5.24133         3.74364         1.01818
LJ          -2.68221        0.166679         4.93587
LJ          -4.39509        -2.99305         4.19574
LJ           1.49466        0.237413      -0.0629638
LJ          -4.48383        0.578068         4.69116
LJ          -2.68865        -4.85666        -5.41461
LJ          -2.35147        0.398723       -0.191556
LJ           4.42525        -2.22619        -3.93813
LJ           3.20751        -3.27949        -1.06064
LJ          -4.02041         4.17069         1.00199
LJ           5.40668        -4.10548         3.54325
LJ            4.2276        -4.91093         4.63523
LJ           5.19343          6.1668         4.08444
LJ           5.98284        -1.29434          3.9229
LJ           2.75102        -4.18984        -1.37507
LJ           5.59997        0.837826         6.14299
LJ           5.69871        -4.87728         6.30779
LJ           4.62321        -2.59462        -2.25383
LJ          -4.35515        -4.45023       -0.853961
LJ          0.117041         1.39949        -4.97083
LJ          -1.17885         6.07464        -5.27483
LJ          -2.11885        -2.32232        -2.30278
LJ          0.243666         2.16817        -2.38371
LJ          -2.90571          3.1082         2.24602
LJ           4.68164       -0.962284         4.19152
LJ           1.45845        -4.91824        -2.88807
LJ           3.88867        -3.15404       -0.796105
LJ          -4.02725         -1.2393        -4.38778
LJ           4.58511         1.03345        -5.33317
LJ          -5.25722        -3.35518         1.77724
LJ           2.56967         1.82053        -1.52981
LJ          0.979906        -4.83595         3.13034
