108
#Comment!
LJ           1.90448         5.05457         2.78696
LJ           5.70424         4.85189         5.74457
LJ         -0.264749        0.863719       -0.711879
LJ          -5.64723        0.481358         2.30779
LJ           1.90232        -2.15859         5.65488
LJ           1.10012         -1.2214        -1.90027
LJ          -2.36903        -6.06916         2.28426
LJ           4.74212        0.315789        -5.74228
LJ           5.11783        -4.26315        -3.98705
LJ          -6.38176         3.08836        0.592279
LJ           1.17886        -2.12328         4.42801
LJ           -5.0189         2.01682        -4.84728
LJ          -4.81581        0.645734        -1.68148
LJ         -0.508401       -0.932485         -3.6309
LJ           2.32412         4.39959        -3.97424
LJ           -4.9281          4.1231      -0.0484096
LJ           3.12993         0.64945         2.52766
LJ           -5.6417         4.95685        -3.44676
LJ           2.00439         3.96449          3.2638
LJ           2.87975        -1.04717        -1.55591
LJ          -5.60205         4.36657        -2.79636
LJ          -1.89957            4.81        -3.34962
LJ          0.643803      -0.0605638         2.96287
LJ           2.02929        -3.61971         1.78975
LJ          -3.16286        -2.07939         -5.6105
LJ           2.71407        -3.01232        -4.69391
LJ          -3.35546        0.672116         5.90626
LJ          -1.05383        -4.66625       0.0485633
LJ           4.38174        -1.12299       -0.437804
LJ          0.990491       -0.464222            1.52
LJ          -3.11613        -4.32607        0.338704
LJ          -6.30868        -3.90205        -2.99793
LJ           1.73252        -3.46919         4.18533
LJ          -5.76064        -4.90875         0.53659
LJ            -5.484         3.77994        -6.46317
LJ         -0.453688        -6.17621         5.21875
LJ          -3.78166         2.27949         3.45171
LJ         -0.749374        -4.14414        0.147211
LJ          0.391659         5.01304         4.89524
LJ          0.717047        -1.05501        -5.09676
LJ          0.790316        -4.09995         2.55575
LJ          -3.64867        -4.23433        -5.51292
LJ           5.65024        -2.64144         5.07989
LJ           3.35263        0.875751       -0.321908
LJ           2.73262        0.882433         2.78064
LJ          -6.26303         2.72782        -1.89542
LJ          0.878781         4.48384        -4.88057
LJ           2.36177         4.57519        -1.42411
LJ          -2.38933          5.7269         1.11592
LJ          -4.61056        -5.90799         3.76595
LJ          -2.30319        -2.54251          5.3629
LJ           5.55882        -6.33271        -4.93487
LJ          -1.19428         2.59229        -4.38571
LJ          -2.37782       -0.460763       -0.691475
LJ           4.62728        -4.90733        -6.22721
LJ         -0.799467         2.56086        0.336293
LJ           2.03522        0.160191        -4.72677
LJ         -0.638765         3.73763         4.52142
LJ          -1.07417         3.15537       -0.238223
LJ          -3.16418         5.40642         5.13254
LJ          -5.14411        -2.66489        -4.81547
LJ           2.47318        -2.26335       0.0464782
LJ            2.8837          2.0113        -3.36287
LJ         -0.782901         4.00395         4.24618
LJ           2.71789         3.94648        -2.88831
LJ          -1.63043         4.94311         3.93432
LJ         -0.204552        -6.05373        0.921024
LJ          -5.27077        0.982366        0.833989
LJ          0.976135        -4.26453        -5.15456
LJ          -6.17064         5.61069        -0.10957
LJ          -3.67167        -6.17247         6.13389
LJ          0.876355        -0.97084        -5.44545
LJ          -4.38356         3.34271         0.12277
LJ           1.55107        0.942816         5.75542
LJ           5.69778         3.70019        -5.86015
LJ           -1.3342        -3.85619        -6.28707
LJ           2.30027        0.365009         -5.4397
LJ          0.473557        0.713068        -5.10558
LJ         -0.409016        -4.65216        0.379845
LJ          0.622465        -3.47618        -2.06292
LJ           -3.3235         5.87102         1.28374
LJ          0.412863          4.7369        -2.98613
LJ          -4.08999         3.84725        -3.55103
LJ          -6.18221         1.25573         2.07406
LJ          -2.66426        -4.81652        0.874127
LJ           1.33486        -2.41012         4.17919
LJ           2.47435        -3.66572         3.77158
LJ           6.33353        -1.46677        -1.59439
LJ          0.500804        -4.79032       -0.267755
LJ          -2.80177         1.73685         -2.3559
LJ          -1.80554        -2.94463          1.3525
LJ          -3.90252       -0.342038        0.076023
LJ          -5.86177         4.68361         -4.9055
LJ             1.986         4.79927          -2.645
LJ          -3.10246         3.73168        -5.03709
LJ          -0.55672         3.54524        -4.89416
LJ          -3.76352        -3.57418        -5.52156
LJ           2.95351        -5.19188        -4.20212
LJ          -4.13559         2.81025        -3.55425
LJ           2.71543         1.42287        0.539856
LJ             4.837         2.20863        -3.72602
LJ          -0.87759         5.08558         6.03727
LJ           4.81827         1.72783         1.43507
LJ          -2.25493         2.30596         5.24703
LJ          -5.40869        -1.64953        0.205875
LJ           5.45195         3.24773        -4.72403
LJ         -0.864268        -2.62303         2.69739
LJ           2.91716         5.82792         -1.4513
