108
#Comment!
LJ          -3.20727         -5.3316        -3.62055
LJ          -6.18563         -5.5101        -5.88565
LJ           6.16714       -0.936364         6.34123
LJ            5.2322        0.860336        -3.07477
LJ          -5.38325         4.50009         2.36312
LJ           3.40205         5.32782        0.330668
LJ          -3.96546        0.259941         1.00775
LJ           2.23585         4.77967         1.74965
LJ           2.11075         -5.8103           3.091
LJ           6.40158        0.516929         4.76312
LJ         -0.785589        -1.21665      -0.0413814
LJ           3.18136         2.84938        -2.21675
LJ          -5.73691        -4.84029         3.96244
LJ         -0.900856          1.4766      -0.0422259
LJ           5.52179        -6.38044        -4.84673
LJ          -1.37708        -4.33229         4.65779
LJ          -4.00728         3.45819        -4.45399
LJ          -4.33343        -3.77934         5.89769
LJ           -3.8458      0.00642124        -2.28777
LJ           -1.8101        -6.06929         4.85791
LJ            6.1693        -5.94995         3.86743
LJ           -6.1789         4.70486          4.4293
LJ          -4.35128        -1.42644         2.99477
LJ           -1.8241        -6.33793         2.27492
LJ          0.779256        -6.20453         6.45944
LJ         -0.845397         4.12804         5.27132
LJ           5.22806        0.988287         5.45482
LJ          -1.45436         5.97287         4.50119
LJ           -2.5002       -0.791956         3.39752
LJ          -4.75181        -4.91651        -2.90732
LJ          -6.13554         5.16737        -0.91913
LJ           6.10529        0.722544       -0.110781
LJ           3.81947           2.192         0.61441
LJ          0.981826        -3.19331         -2.3635
LJ          -4.19022         -5.8783         3.54549
LJ           5.22068         5.93172         3.07053
LJ          0.492833         6.38973        -5.77065
LJ           5.70864        -1.42133        -3.75318
LJ          0.811103        -2.04365        -6.30031
LJ           1.79564       -0.754021       -0.236893
LJ           5.71241        -1.15315         1.47825
LJ           1.71734         1.43778         3.01429
LJ           2.12217       -0.296703         4.07119
LJ            4.4808        -3.64129        -6.01097
LJ           4.66748         6.03215         3.04664
LJ          0.331968         6.36511         5.73404
LJ           1.26895        -5.80672         2.74544
LJ          -1.82551         2.04965         5.32038
LJ           1.77634        -6.27619        -6.26006
LJ          -1.59195        -5.90075         2.28579
LJ          -6.29133        -2.60067        -2.68374
LJ           4.63673        -2.00165         2.94186
LJ          -4.45633         2.95195         -5.6477
LJ           3.05056         3.45666         5.16477
LJ           1.21306         0.31053        -1.90059
LJ           6.43873         1.22519        -4.09395
LJ           4.24316         4.66658        -4.31227
LJ          -4.94477         3.59018       -0.932616
LJ          -2.88762         3.56166          -5.368
LJ          -3.32354           4.295        -3.76964
LJ           4.32033         1.67749          2.3473
LJ           2.82206        -4.64924        0.158034
LJ          -3.58754        -4.47302        -1.86301
LJ           6.04231         3.99686        -1.34063
LJ          0.493847        -4.36847         6.41081
LJ           4.36492        -6.20548       -0.123276
LJ            3.1927          2.1287        -1.32642
LJ           4.69948         5.74416          2.7454
LJ         -0.578536         4.77671         5.91543
LJ           1.70883        -1.25975         -4.0508
LJ         -0.796894         2.78836        0.615019
LJ          -2.32897        0.115218         2.38298
LJ           -3.6794        -2.46931        -4.44482
LJ           5.08157         6.19187         4.22971
LJ           3.16787        -4.82786        -3.48335
LJ           5.02745        -1.13615        -1.48583
LJ          0.112573         5.80815         4.30666
LJ           1.61011        0.161536        -5.79232
LJ          0.109247        -3.62173         5.02971
LJ          -6.44919        -2.99819         3.04794
LJ           3.38159        -3.27631         3.12074
LJ          -2.59326         1.10135        -2.58634
LJ           4.23744        -5.21554         -5.4115
LJ         -0.850735        -5.75774        -2.59607
LJ           1.14873         5.24358       -0.740385
LJ          -5.08272          4.0169         1.65949
LJ           5.32254         3.26292         -1.7958
LJ           4.58336        -5.54971         6.41259
LJ          -4.05724         1.22217        -4.37121
LJ           3.82737        -5.18998         3.60703
LJ          -4.33047        -2.55952        0.971792
LJ           5.11048        -3.94752         2.66143
LJ          -3.91416         3.03832        -5.63488
LJ          -4.88315        -3.46595       -0.201037
LJ           4.30179        -1.60586         3.54316
LJ           4.32694         4.13625      -0.0861547
LJ            4.9729          -3.529        0.205952
LJ          -3.14272         1.78255         1.74649
LJ           2.56231         2.53158       -0.343131
LJ          -2.57854         2.08732        0.197959
LJ          -0.28766         4.65908         5.27099
LJ           5.63642          4.2138        -0.30097
LJ           2.62269         3.41349         1.17318
LJ         -0.126755        0.880183         4.84775
LJ            -2.971        -1.47384        0.387804
LJ          -1.13185        -2.02704        -4.92697
LJ          -4.02006        -2.99686          5.4731
LJ          -5.19046         3.74312        -1.65915
