108
#Comment!
LJ           1.32826         1.99237        0.601236
LJ          -0.55856         3.17702         3.20545
LJ           3.10063      -0.0254193        -2.86474
LJ           4.90987         1.81221         -1.2412
LJ           1.64863         5.10113         4.83438
LJ           6.11468         4.74283        -2.17549
LJ          -5.51024         3.07044        0.903222
LJ          -6.10714         4.05648        -1.85691
LJ           5.66957         2.63473        -4.29742
LJ          0.128807        -0.30884         -6.1691
LJ         -0.491357         6.26726        -2.48608
LJ          -4.94526         5.52611       -0.121549
LJ           3.96289        -3.11688         3.10882
LJ           5.08916         1.21512        -1.82281
LJ          -5.73274       -0.510333       -0.142777
LJ          -3.62456        -4.78644       -0.941207
LJ          -3.48686        -4.31502          2.7249
LJ          0.846629        0.472555        -5.72787
LJ           4.59537        -3.70353         4.00129
LJ           3.70838        -1.60034         3.37806
LJ         -0.256284        0.107296         5.76113
LJ          -1.36509        -1.52388       0.0490483
LJ          -4.96394         5.30243         2.68443
LJ           -4.9106         0.95575         6.27939
LJ         -0.205324         2.39239         -1.9816
LJ           4.07119        -4.58778         2.05222
LJ         -0.673135       -0.678297        -3.73626
LJ          -3.16543        -3.95494        -5.76746
LJ        -0.0153472        -1.35386        -4.30542
LJ           1.25692         5.96878        -1.49318
LJ         -0.370102         5.93747        -3.66657
LJ          0.821605           -5.33         4.56108
LJ           3.68888       -0.227173      -0.0535296
LJ          -3.97265         1.78787        -1.61574
LJ           5.48546         -3.9204        0.210455
LJ          -1.89675        -2.06164         6.33677
LJ           -1.1898        -2.17152        0.278948
LJ          -5.82072       -0.985067         4.39801
LJ           5.75071        -2.88615        -3.37558
LJ          -1.90144        -2.65641        -1.37705
LJ            4.9387        -2.57051         5.08002
LJ           1.48785       -0.349975          0.5096
LJ          0.328704         2.49603      -0.0662715
LJ          -2.89914         5.70545        0.563427
LJ           4.63699         3.67815        0.783468
LJ          -2.85814         4.35042         4.93187
LJ            3.2897        -2.91256      -0.0333847
LJ          -3.39923        -6.34224        -1.32495
LJ          -4.34847         6.10889        -4.47853
LJ          0.352903        -4.53284         5.10488
LJ           5.52436         2.73864        -6.46081
LJ           6.21446         6.33828         4.31061
LJ          -5.24147        -5.97462        -2.07752
LJ          -6.19677        -5.28459          6.3276
LJ            2.2629         4.57961         1.39073
LJ          -1.02839         -3.3977          1.1075
LJ           1.71401        -5.42425        0.351113
LJ          -5.42369         2.03769      -0.0729613
LJ          -4.86515        -3.21924        -5.62726
LJ           2.92242         1.55376        -2.37174
LJ           5.10856        -3.75869        -2.99852
LJ          -5.04862         0.27999        -6.22089
LJ          -4.13235         4.24067        -6.38621
LJ           3.47099       0.0118846        -5.27478
LJ           -0.2711        -4.71924         3.65338
LJ          -6.35896         5.44419        -2.60197
LJ           1.84459       -0.818657         3.26912
LJ           2.45226        -5.38485        -5.73724
LJ            3.0381        -2.60108        -5.67468
LJ          -0.72374         2.83289        0.800859
LJ           2.21052       -0.262648       -0.301873
LJ          0.900536        -5.15034         6.33295
LJ          -2.16521        -1.59078        -2.12597
LJ          -3.30248        -2.97521         1.11395
LJ          -2.76778         3.67031         5.53231
LJ           1.12729        -5.86755        -1.36991
LJ           2.85288         5.50832        -5.87809
LJ          -1.93053         -0.7788         3.83911
LJ           4.70717          3.1667         2.47755
LJ           5.37604        0.310895         -3.4902
LJ           3.71606       -0.905954         5.32393
LJ           -1.7901        -4.91377        -3.05906
LJ           5.97792       -0.470976       -0.779684
LJ           2.54623        -2.53029         3.99691
LJ           -4.2926         4.47991        -1.67885
LJ           6.21182         3.59931         1.48722
LJ          -6.10713        -1.72608         1.27549
LJ            -1.458        -1.02655        0.751928
LJ          -3.45563        -3.11332        -2.15118
LJ           6.20011        -4.46826         0.91663
LJ          0.240311        -2.22815        -5.22905
LJ           1.96144         4.35813        -4.05339
LJ           0.54105        -2.22569      -0.0379632
LJ         -0.604446         -3.2315         -3.9012
LJ          0.754531         1.41619        0.889763
LJ           2.61165        0.944617        -3.22687
LJ           1.29877        -3.31076         4.72493
LJ          -1.70659          5.6236         -2.2596
LJ          -0.46234        0.558544         5.08096
LJ            3.2651        -4.95685         2.34245
LJ          -3.96401         4.76342      -0.0331243
LJ          -4.69902        0.189949         5.86543
LJ          -4.26836         4.40849        -3.98528
LJ          -5.95406        -2.80537         5.41762
LJ           1.74065          3.4114        -3.90641
LJ          -5.38051        -6.28094        -2.75879
LJ           1.73645        -5.74331      -0.0424012
LJ          -1.70311       -0.667813        -4.89389
