108
#Comment!
LJ          -5.83955         3.02423         -4.8601
LJ           3.00115        0.579652         6.45054
LJ          -0.26419         6.36674         1.97789
LJ          -1.88521       -0.584748        -4.36652
LJ          0.465235        -0.92698         -2.8454
LJ          -4.35789        -3.50196        -2.84359
LJ         -0.465399         4.12279        0.540944
LJ          -4.09261         4.96146        -2.90958
LJ           3.08521        -5.35037        -5.00929
LJ           1.71159        -3.76718         1.11483
LJ         -0.191535        -4.08504        -0.13552
LJ          -4.82035          2.6402        -1.09126
LJ          -4.74865        -2.57268         2.64366
LJ          0.490759        -5.47327        -1.26035
LJ          -6.14914        -3.02358      -0.0795188
LJ           3.96075       -0.622901       -0.244865
LJ          -2.66565          1.5435        -2.83155
LJ           0.22208         5.85617         4.04773
LJ          -3.54801        -1.08534        -2.49437
LJ          -2.23529          3.9354         3.94421
LJ         -0.632577         6.40927       -0.680053
LJ          -2.09948         2.21743         6.26341
LJ          -5.04024         4.96842        -5.33571
LJ           1.47844        -6.29721        -5.21514
LJ           2.47409         4.97163        -3.23655
LJ          -3.03343      -0.0582422         3.93226
LJ           5.80102      -0.0591372        -2.28647
LJ          0.855531         1.29743        -4.91559
LJ          -3.58238        -5.86421         4.28391
LJ          -1.66004        -5.72699         2.92786
LJ           2.41032         -5.4494         1.60036
LJ         -0.948571        -1.74448         2.13584
LJ          -6.37403        -2.31978         4.33774
LJ           2.17328         4.37259          -5.019
LJ          -4.78606        -4.13412         4.67934
LJ          -4.07357        -1.70275        -6.13776
LJ           -4.9031         6.08303        -4.43795
LJ           4.96104       -0.443721         2.83515
LJ          -1.07928        -2.33245         2.34635
LJ           5.49264        -1.16938         5.66275
LJ          -4.66048         -2.1912          1.1023
LJ          -5.05378        -5.19133         2.48661
LJ          -1.34716         5.68369       0.0421439
LJ           -3.8165        -3.21667         1.97177
LJ          -2.51083         1.71874        -1.13486
LJ           2.76174         4.33488         6.11744
LJ           5.10521      -0.0838313        -2.63396
LJ          -1.53998         2.77208         -3.6922
LJ           5.43268         2.49598         2.94148
LJ          -1.95301        -3.28439         3.27814
LJ            3.6104        -4.04752        -2.20505
LJ          -3.96192         1.83697         2.48503
LJ           6.14963        0.988124        -4.12185
LJ           1.58767        0.865584       -0.349567
LJ          -5.53379        -6.19745        -1.44197
LJ           3.68775         1.24855         2.74936
LJ          -4.81179         1.18783        -5.54548
LJ         -0.983777        -5.61534         4.80153
LJ          -1.92566         1.63207        -1.66436
LJ          0.800077         6.07138        -3.12799
LJ           4.98397        -4.42579         2.34111
LJ           4.09146        -6.04019        -1.68665
LJ          0.201555         5.61841         5.31349
LJ           1.06393         4.01539       -0.890589
LJ           3.79662         3.30452       -0.366576
LJ          0.456921        0.950734         5.09416
LJ            -1.988        -2.20059        -4.11406
LJ           1.14784        -1.53967          3.7466
LJ           2.08931        -5.11859         2.59893
LJ          -4.01377        -5.58832        -2.96248
LJ           5.35013        -5.60316        -5.57865
LJ           4.51082       -0.381591         6.08341
LJ           -4.7358         2.69878       -0.118965
LJ          -5.57616          5.7411       -0.348489
LJ          -2.24253        -1.23012        -3.42978
LJ          -3.72385         5.06499         3.16491
LJ         -0.151932        -3.67198        0.946376
LJ           6.14645         1.71584        -5.58099
LJ          -1.58079        -1.06316        -2.63329
LJ          -5.17813        -6.29758        -4.92219
LJ          -5.30823        -6.31987         1.47035
LJ           1.59374        -5.09139       -0.697097
LJ          -4.77514         -3.2063        -5.14227
LJ          0.631474         4.86205         2.77543
LJ         0.0190857         -6.3395         4.43546
LJ          -3.89543        -4.70282         1.52268
LJ           5.37782         2.39827        -1.95509
LJ          -2.69777        -2.92518         1.18603
LJ          -2.61077       -0.101474         -4.7389
LJ           2.39926         5.91807       -0.921007
LJ          -4.57958        -4.32741         1.68162
LJ          -3.34784        0.370095         1.37791
LJ          -1.70139         1.27167        -3.83764
LJ         -0.713666       -0.366498        -4.06914
LJ          -3.16605          1.5934         5.25266
LJ         -0.181056         5.80963        -3.54469
LJ          -5.24989        -2.64007           1.467
LJ           3.69518         -2.2334        0.989922
LJ          -2.80037         3.40812        -5.45924
LJ          -1.00274         5.72903         2.70815
LJ           1.83575       -0.670554        -5.56037
LJ          -5.84173        -1.37345         1.15356
LJ          -6.45499         -4.8267         5.82969
LJ           1.46652         4.13368        -2.91574
LJ         -0.841909         4.90573         3.73688
LJ          -6.11948        0.977332         5.16622
LJ         -0.439812        -1.83347         5.71143
LJ           2.76741        -5.64571         6.31447
