108
#Comment!
LJ           3.60387         5.53458       -0.224771
LJ           4.00091         2.03424        0.336139
LJ           4.45072         4.87891        -1.79823
LJ          -1.46804        -3.62874        -5.99623
LJ           4.11835        -2.47454       -0.691331
LJ           2.92899        -2.08541         5.56789
LJ           4.85515        -3.82663         3.10625
LJ           4.02803        0.105749          1.8664
LJ           2.58578         6.18206        -4.86132
LJ          -3.03859        -4.70064        -2.27649
LJ          -2.26661         1.07402          3.7187
LJ          -3.58299         1.13471         5.88827
LJ          -3.51955        -4.13733         4.04344
LJ           1.99598        -1.52757         -2.9097
LJ          -3.51488        -1.04539         1.53558
LJ           1.94649         0.37184         4.93363
LJ           2.34916         4.92233          1.5781
LJ           1.24296         6.34035         1.26188
LJ           5.10615          1.2513         3.02244
LJ           1.78181         4.58426        -4.40981
LJ          -1.08072        -2.84339         2.36069
LJ         0.0492471        0.161019        -4.90098
LJ          -5.81205        -5.36186         3.41715
LJ           1.98182         2.24622         -3.1656
LJ          -2.82619         4.83261         4.72713
LJ           5.06998         1.55868         2.92019
LJ          -2.24433         1.13106        -3.92437
LJ         -0.560701        0.122549          3.2759
LJ         0.0894073          3.6475         1.13011
LJ         -0.983073        -4.08567         4.05576
LJ           -5.4171        -4.45256        -5.44856
LJ        -0.0548736         2.41999         3.60589
LJ           3.32728        -5.53321        0.190957
LJ           1.09508         4.14095        -4.31253
LJ           4.77855        -5.22293        -0.84142
LJ           3.45916         0.73847         4.38448
LJ          -3.25321        -1.01359         5.42182
LJ          -2.45878         1.51494        -6.11874
LJ         -0.329709        0.781337         4.94672
LJ         0.0939184        -3.59647         1.31038
LJ          -6.36928         2.54795          1.9953
LJ          0.250653        -1.86908         5.16253
LJ          0.881588        -4.47751           1.339
LJ          -3.65685       -0.406296         -1.1336
LJ           5.30657         2.37625        -2.39377
LJ           4.95712         3.81597           2.479
LJ          -3.87331         -4.6042         6.35264
LJ          -2.24833        -3.99932         3.32959
LJ           2.86967         5.97989        -4.75132
LJ          -3.63957         2.36025        -2.68194
LJ          -4.21156         4.35931         4.91327
LJ          -3.58771        -4.62827          3.9313
LJ           2.39526         1.27619         3.52133
LJ           3.16463        -5.58981        -1.12726
LJ          -4.15332         1.77859         3.76136
LJ           2.30911        -3.91729        -5.97566
LJ           1.42847        -5.04762       -0.298375
LJ           2.57401        -4.81851         4.62323
LJ           6.25172         5.72166         5.45792
LJ           3.10373         -2.0088      -0.0541393
LJ          -4.22642         5.76516         -2.8896
LJ           4.64914        -1.04665        -1.97213
LJ           4.51492        -4.39398         5.87227
LJ            6.1845         2.95771        0.772109
LJ          -6.34971          3.5035        -4.53393
LJ          -4.06501         2.97321        -2.25207
LJ          -1.05801         1.97419        -4.03147
LJ          -3.52962         1.36184        -2.70893
LJ          -3.92073         2.18483         5.33796
LJ           2.39157        -4.56019         4.18045
LJ         -0.538772         1.91088        -1.03635
LJ          -1.80058        -2.61922         3.24232
LJ            2.3321        -1.54532         2.63983
LJ          -3.23568       -0.891608        0.154157
LJ          -4.77982        -4.86994        -1.14217
LJ            2.8026         4.70839        -2.41747
LJ           -2.2201         0.87915         4.39776
LJ          0.299851         1.15532         1.37603
LJ          -2.67293        -4.93116         0.36036
LJ           -4.9577        -5.87628         2.40027
LJ          -5.36896         -5.2988        0.289233
LJ          -3.88794          1.6677          -4.858
LJ          -4.86577        -3.93172         1.95423
LJ          -1.93936        -6.20595         6.23712
LJ           5.59609        -3.54238       -0.610124
LJ         -0.237144        -2.90785        -5.75142
LJ          -4.36621       0.0645714         2.89425
LJ           6.02582        -1.64934        -1.69603
LJ          -0.47262        -5.98005        -3.09872
LJ          -1.11926         2.71088         2.75612
LJ           2.93956         2.48938         3.00122
LJ          -1.30719        -4.57991       -0.878121
LJ          -6.17335        -2.41068        -1.62277
LJ           6.06615       -0.628244       -0.489639
LJ           3.14775        -1.02279         3.55046
LJ           5.50019        -4.16885        0.137274
LJ          -0.72243        -5.62567         -1.2643
LJ          -2.05874         2.75581        -2.69798
LJ           6.25657        -1.14759         5.86726
LJ          -6.40322        -6.28191         -0.2583
LJ          -4.45047       -0.184578         5.84056
LJ           4.07451        0.503023        -6.44998
LJ          -5.30251         3.77791         2.91313
LJ        -0.0374147         1.74683         2.50156
LJ           4.41036       -0.495065        -6.08814
LJ          -6.37595        -1.67213         -1.8373
LJ          -1.07429        -4.68451         -4.4767
LJ         -0.164385        0.518675         4.78385
