108
#Comment!
LJ          -3.11482         1.35026          3.7848
LJ           5.42009        -5.12161         4.37662
LJ          -3.11848        -6.07011         2.10688
LJ          -5.00765        -1.85834         2.60485
LJ          -1.28291         3.50199         5.58308
LJ          -5.86543         5.07034          5.8453
LJ          -2.12526        -3.25872        -5.02184
LJ           2.75285        0.623578        -4.81681
LJ            3.0386         3.48207         6.40494
LJ          -3.21231         5.33583         2.27619
LJ           4.10394         4.21287       -0.760979
LJ          -3.00783         3.41052       -0.382298
LJ          -5.22359         3.71135       -0.613946
LJ          -0.13684        -5.71982         2.51962
LJ          -5.35538       0.0892745        0.569282
LJ           5.98973         3.34047        -3.79281
LJ          -2.79935         4.15121        -4.10291
LJ          -4.23514         1.47782        -3.15071
LJ           -6.1378         4.97535        -3.99647
LJ           1.15718        0.178337       -0.515846
LJ           1.75462       -0.736524        0.136868
LJ          -5.05591        -2.37873        0.561934
LJ          -5.06959       -0.273716       -0.871048
LJ          0.498653         -1.4703         2.08962
LJ           3.51325        -3.71314        -5.08152
LJ           2.31921        -6.04701         4.36304
LJ         -0.170365        -2.95737         1.34266
LJ          -4.89006         6.04463       -0.704501
LJ          -5.15733        -4.93366        -5.99741
LJ           3.56649        -5.10761        -5.51262
LJ           5.24988        -2.44851        -4.59163
LJ          -5.99472         5.75504        0.947299
LJ           4.86904        -3.26021        -5.71634
LJ          -5.25245         -3.7594         2.44654
LJ          -1.88901        -1.27783        -2.76339
LJ           5.12743        -2.78251        -4.17863
LJ         -0.410862         4.83365         5.64382
LJ          -3.66003       -0.792758        -1.54816
LJ          -1.03154         2.39629        -1.50125
LJ           2.61599         2.04776        -2.96914
LJ         -0.364355        -2.78293         2.61659
LJ           5.78791        0.575766         -3.2541
LJ           2.93702         3.13413        -4.74561
LJ          -5.02264        -2.62194      -0.0268558
LJ          -4.00525         5.10559        -5.31075
LJ           2.01851       -0.361588         1.92504
LJ            2.3158        -1.12811        -4.82714
LJ           4.59519       -0.292437        -3.51754
LJ           5.26331        -2.35956          4.5931
LJ           3.78144         3.71783         4.08595
LJ           5.80513        -5.13859        0.426417
LJ          -5.64749         5.85635        -5.96192
LJ            5.3095        -4.04591        -1.28013
LJ          -5.29344          2.8253        -5.99651
LJ           3.28237        -4.11377        -4.27582
LJ           4.62751        0.564009         -6.3217
LJ           3.19487         1.04713        -5.55315
LJ          -4.88056         5.78998        -5.33537
LJ           3.70147        0.796874         1.53314
LJ          -3.02259        -3.80679         4.36335
LJ           3.97243         -1.3225         4.74307
LJ           5.14354        -1.21194       -0.561589
LJ           2.41799         4.25568           5.555
LJ           2.74277        -4.44692         1.67725
LJ             3.092         5.55089        -5.13975
LJ           3.77142        0.271016         2.88375
LJ          -2.46593         6.31894        -1.59395
LJ           5.00549         5.77879         2.44943
LJ          -4.87463         4.76886         2.43374
LJ           5.21339        -2.46416        0.193369
LJ          -3.58908         3.78894         4.13862
LJ           -6.3373        -4.20084        -6.05971
LJ          0.173974        -5.14282        -2.47188
LJ          -5.48202        -1.18043        -6.04638
LJ            5.4937       -0.645932       0.0327714
LJ           4.97512        -4.72537         2.30529
LJ          -6.35688         4.87153        -3.82557
LJ           3.82628        -3.94156         2.05189
LJ          -1.63476        -3.65869        -4.24334
LJ         -0.396249        -4.05262        -1.31514
LJ          -3.17323         3.90124        -2.30006
LJ          0.345142         6.30938         6.32371
LJ           5.07706         4.73759         -2.9623
LJ           1.72258        0.372123        -5.92248
LJ        -0.0943934        -1.76646         1.22594
LJ          -1.80216         1.49736        -5.03642
LJ           4.68186          0.6895          2.1384
LJ           6.12152         1.17036        -5.08452
LJ          -1.63249         2.84618          5.7305
LJ          -2.61682         4.47205        -2.99786
LJ          -6.18667        -2.09906        -1.46622
LJ          -1.31903        -6.30524        -3.44271
LJ          -1.30005        -4.33498         5.59444
LJ          -3.51569          1.1865         5.54257
LJ          -3.04106        -5.33904         3.93425
LJ          -4.36713         5.54746        -2.19361
LJ          -1.88127        -3.16833        -4.29399
LJ           5.27879         1.33926         4.11452
LJ           1.96681         1.21783         4.99815
LJ            2.7876         2.45729         5.51908
LJ          -3.26603          4.0169        -0.66486
LJ           1.06967         6.41708        -6.34965
LJ           2.74859        -2.16852        -5.90123
LJ           3.27956         -4.4694         3.51537
LJ           3.45941        -5.34034        0.743324
LJ           6.44593         2.57404         -4.6297
LJ          -4.27763        -4.83998         6.25029
LJ          -2.18957        -2.07334        0.761137
