108
#Comment!
LJ          0.610448        0.582748        -2.63825
LJ           5.94453       -0.294576         6.27336
LJ           5.41439        0.144836        0.200901
LJ           5.15587         4.14438        -2.34468
LJ           6.08051         3.87758        -3.21393
LJ           5.52178         1.87535         1.22621
LJ          -1.81819       -0.885402         1.75159
LJ            2.9628       -0.991898        -3.83378
LJ          -4.02996         5.16889         3.57012
LJ          -3.24751        -3.65963        -4.91748
LJ          0.172257         2.39973        -5.61898
LJ           -4.1286         5.15584       -0.571721
LJ           2.87941          -4.001      -0.0825437
LJ          -1.13361        -5.15549        -3.84953
LJ         -0.643203         4.27268        -4.27723
LJ          -2.51171       -0.297395         4.10957
LJ          -4.51627        -1.17223        -5.09177
LJ        -0.0609938        -3.42932         6.17073
LJ          -2.58988        -1.36103        -3.67428
LJ          -5.85855        -2.66721         3.57351
LJ          -1.63605          -2.912        -4.08933
LJ           3.06252         -6.4004         2.81429
LJ           5.45163         1.98206         3.44749
LJ         -0.861023         -6.1435         2.40397
LJ          -5.62107         1.05063         1.87387
LJ          -5.59596         -4.2176         2.44865
LJ           6.38996        -3.83203         2.12337
LJ          -4.09126         1.24478         5.63685
LJ          0.648045         2.26741         2.11876
LJ          0.126179        -1.63988         1.71945
LJ           1.24145         4.90489        -4.35552
LJ           3.02613        -5.07968         2.85524
LJ           5.09732         3.79688         4.89085
LJ           1.23698        -4.91288         -3.7408
LJ            5.3363         2.50539         2.15554
LJ           1.99935       -0.952382      -0.0726564
LJ          -2.52687        -5.45792         6.32985
LJ         -0.741739        -0.92519         1.94915
LJ          -2.07956        -0.37223         2.97247
LJ          -6.25672          3.5827        -1.29962
LJ           4.81222        -1.24893        -1.77962
LJ           4.25539        -3.46775         5.34823
LJ          -2.71188        0.758878        -1.33082
LJ          -2.14523         -1.9063         2.78841
LJ          0.606873        -0.88387         3.03232
LJ          -5.29826          1.0003         2.89962
LJ           6.41501        -2.24452        -2.67948
LJ          -3.63341        -2.35879        -4.99709
LJ           3.52801         -3.6617        -6.41647
LJ           4.36962      -0.0599288         3.82995
LJ          -3.15556        -2.08166         2.31161
LJ          -1.48439         3.42827        -4.15525
LJ           -5.8963        -3.90808        0.539591
LJ           4.02587         3.17635        0.452819
LJ          0.332298         4.88554        -2.19042
LJ          -2.00284        -4.49454         6.26075
LJ          -5.28323          2.3768        -2.14602
LJ          -4.95343         2.98065        -3.66055
LJ          -6.36551         6.04831         3.62362
LJ           1.55179        -2.63121       -0.139427
LJ          -4.00158        -2.19786         5.63548
LJ          -2.22436         5.05441         4.34849
LJ           5.77083         2.48192        -3.76082
LJ          -6.19661         2.86036        0.960542
LJ          -5.82863         4.92001       -0.287173
LJ           3.13332        -6.19875        -4.60173
LJ          -5.77991         4.01529         0.68241
LJ           2.46471         2.59881          4.9085
LJ           3.79455         -1.6213        -2.19647
LJ           4.34379         3.11115          2.0165
LJ         -0.709803         0.43128           1.418
LJ         0.0131599       -0.495765        0.995615
LJ          -2.32588         -3.4278        -2.22476
LJ          -2.87877        -3.28043         2.23607
LJ          -6.16622         6.15239         5.19494
LJ           3.72876        0.387089        0.959722
LJ           1.05859         -3.7489        0.564008
LJ          -1.25059        -2.47609         2.88123
LJ           4.70619         5.96205        -4.96923
LJ          -2.98086        -2.79067         3.27513
LJ          0.475521       -0.907364         4.40491
LJ           3.63678        -2.94598        -1.80116
LJ             2.667        0.153983       -0.982732
LJ          -1.39786        -1.19035         2.80285
LJ           4.51555        -5.93137         -4.5869
LJ          -5.00217        0.351552        0.986541
LJ         -0.468899         1.15354          2.6307
LJ          -2.11941        -3.32488         -3.1814
LJ            3.9927        -2.87049         -2.8644
LJ          0.842756         -6.2207         3.99707
LJ           6.10665         5.53051         4.46498
LJ           5.93784       -0.186355        -1.58935
LJ           3.50143         4.31526        -3.16198
LJ           2.46708         2.26847       -0.567578
LJ           6.28573         4.24354        -1.99407
LJ            4.3246        -2.14487        -1.12491
LJ          -5.06712       -0.054193         2.47009
LJ          -3.08686         5.68768        -4.28321
LJ           -1.3177        -3.32272        -1.69491
LJ          -4.94724         3.26296        -1.57441
LJ          0.422162         1.29027         1.84036
LJ           2.46317       -0.949671        -1.10642
LJ            2.6269       0.0969264        -5.93512
LJ         -0.451989         1.46048         1.14674
LJ            5.1801         1.44603         2.62767
LJ           3.24715         2.21509         1.02642
LJ          -5.10401        -1.18722        -2.70692
LJ            5.6131         1.65566          4.5017
