108
#Comment!
LJ           1.56103       0.0492704        -3.21651
LJ           4.85927        -1.23309        0.612435
LJ           1.88462         -1.0343         1.43008
LJ           5.07706         4.11009         2.05404
LJ          -2.62483        -4.15308         4.90731
LJ           3.16595         6.03021        0.735948
LJ          -1.97135        -1.22106         4.90653
LJ            5.0135        -1.89029        -3.37704
LJ          0.464384        -6.30143         1.12058
LJ          -4.48545      -0.0778839        -5.67239
LJ          -5.25946       -0.841693        -5.77424
LJ          -3.96111         1.01629         -1.2887
LJ          0.692294         3.55622        -1.72397
LJ          -5.20774         1.66501         1.01511
LJ          -2.10792         0.66992        -5.67052
LJ         -0.704848        -4.46621        0.906615
LJ           1.24765        -5.15136          5.9191
LJ          -1.37706         1.87193        -4.25054
LJ          -4.11458        -2.36134         4.97322
LJ          -3.24812        0.208985        -4.45269
LJ          -2.01031        0.310657         2.61826
LJ           4.46327         6.21447         1.55326
LJ          -5.50123        0.708172        -3.99472
LJ           1.26993         -5.3647         3.63874
LJ          -1.97139        -4.24451          1.4934
LJ           5.38197        -4.61735        -3.67954
LJ          -5.18472         3.70227        -2.70019
LJ          -6.21783        -1.90449        -3.83878
LJ           1.30596        -4.30411        0.304404
LJ           1.83965       -0.271838         5.64856
LJ           2.06654         3.78068         -3.3639
LJ           4.49647         -5.8521       -0.667791
LJ           6.07976        -2.84808         4.14916
LJ           3.49774        -1.83867       -0.607509
LJ           4.80021         5.25925        0.775394
LJ         0.0350533       -0.806228         6.14917
LJ         -0.924617         5.83346         3.89576
LJ          -4.30114       -0.097508         2.08949
LJ          -3.16722        -1.40345         6.30501
LJ           6.38246         4.71497       -0.248519
LJ            1.4048         -4.1122        -4.23145
LJ          -2.74314        -6.19784         5.07275
LJ          0.523531        -4.53979         -4.1806
LJ          -5.31992        0.492677         1.68099
LJ           -4.6563        -5.68022        -4.85427
LJ           5.11569         2.59884         1.00505
LJ           -5.6982        -2.81845        0.485986
LJ          -2.14627         1.25554         6.25926
LJ          0.210694       -0.101799         5.00837
LJ           6.17177        -2.52954        -2.99825
LJ         -0.522385        -4.06567       -0.666236
LJ          -1.59562        -4.54157        -2.21312
LJ          -1.18554         1.34987         -1.8513
LJ           3.21848         5.77567         -1.0608
LJ           3.85084        -5.91678        -3.24243
LJ           6.12912         4.48971         5.14294
LJ           1.24545         3.68341        -4.66646
LJ          -3.62777         5.84571        -1.17962
LJ          0.921865        -2.71075        0.610568
LJ           5.92727         3.84696       -0.932361
LJ          0.938965       0.0672766         3.88852
LJ          -3.45878         4.22973         4.46644
LJ          -5.77635         5.12713          5.6436
LJ             3.468         6.08082         2.26713
LJ           6.34443        -3.93034         3.66088
LJ           3.48518        -4.80018        -3.49535
LJ           4.40841        -1.68031        -2.22064
LJ          0.738923         1.88827        -1.59338
LJ           5.35974        -1.19496        -2.45553
LJ         -0.183214         4.22685         4.03953
LJ          -3.46187       -0.163588         1.54318
LJ          -5.32534       -0.848996         4.99799
LJ           -6.4032        -1.73692       -0.528348
LJ          0.744034        -4.91906        -5.20732
LJ          -3.12899       -0.735245        -3.91472
LJ           2.80103         1.75649          -3.985
LJ           -5.6074         -5.2318        -2.47919
LJ         -0.635745        -1.45541         5.08827
LJ          -3.54725         -6.1803        -4.81948
LJ         -0.820464        -3.37197        -5.54814
LJ          -1.08395        -1.84065        -2.55227
LJ           6.24751       -0.621554        -2.94739
LJ           3.16264         2.38151        -3.02114
LJ          -3.46481       -0.329025         4.34966
LJ          -1.86676         3.92279         5.09318
LJ          -3.67704       -0.506766       -0.830222
LJ          -2.71825       -0.941076         2.02607
LJ           5.72289         0.73387         4.16753
LJ           3.98521       -0.282203        -1.34037
LJ         -0.101131         3.98013        -2.62616
LJ          -4.53561         3.22493         4.91224
LJ           5.14467       -0.225949        -2.81089
LJ         -0.159276         4.92437         6.01905
LJ           2.40238         1.91778         3.09548
LJ          -3.01247        -5.79851         -5.8651
LJ            5.1389       -0.955317        -1.38774
LJ          -1.31815       -0.585148         3.91053
LJ         -0.124637         -2.7126        0.477413
LJ         -0.158747         6.31522          5.4613
LJ           3.65792         3.80498       -0.710297
LJ          -3.43836        0.840982         2.38526
LJ            4.0649       0.0061955        0.686617
LJ           4.27137         1.31619        -1.80321
LJ          -3.14482       -0.522773        0.519473
LJ           -5.5055         4.09348        0.301327
LJ           4.15612         2.14214         3.12099
LJ          0.461466        -5.39207        -1.40968
LJ          -6.05147         1.05082        -5.04322
