108
#Comment!
LJ         -0.922611        -0.23107         6.31477
LJ          -3.55105         2.67833         6.04022
LJ          -4.92765        -1.37196       -0.478899
LJ          -3.38386        -1.08794          -3.749
LJ          -3.56471         1.95067        -4.14097
LJ           6.06775         1.90608         -1.4283
LJ          0.682834        -5.62145        -5.41266
LJ          -1.90729         5.56851       -0.573574
LJ          -4.20618        -3.06641        -1.93459
LJ           6.27687         1.62214         5.39603
LJ           5.39192       -0.946319         1.82556
LJ          -6.44949        -6.37388        0.144228
LJ           0.91058          2.0195        0.375853
LJ           4.80392        0.738796         2.27595
LJ           4.68889         4.95121        -1.23164
LJ          -1.16399         4.79989         2.06264
LJ          -1.31147         2.69334        -1.72965
LJ          -2.35628        -4.98731         0.92697
LJ           4.41632        -5.79422         4.90658
LJ           6.13647         2.35251         5.66802
LJ           5.95568         3.73325        -5.94942
LJ            5.9254         3.80043      -0.0770345
LJ          -2.39387       0.0890037        -5.39477
LJ          -5.29795         6.35894        -4.63166
LJ           1.78587         3.11521         1.77104
LJ           3.34247        -4.66443       -0.654214
LJ           3.60228         5.81223         3.32584
LJ           5.27319         3.72264         6.38635
LJ          -4.92937       -0.391612        0.586542
LJ           1.95752        0.854642       -0.850909
LJ          -1.48742        -3.24123         2.70939
LJ          -3.43795         2.54016         3.60861
LJ          0.856226        -2.89586         5.54369
LJ          -4.16154         4.18828          3.6086
LJ           3.54847        -3.89713         5.30757
LJ           5.67133         -2.4636        -5.81566
LJ         -0.365929          5.2227        -6.41369
LJ          -1.04286         1.98918        -5.62702
LJ           5.17593         5.56866         5.01448
LJ            4.2688         3.82508        -5.80852
LJ          -5.73322         4.74815         -2.7474
LJ          -3.98697        -3.78962        -3.03853
LJ           2.62613        -2.52808       -0.114979
LJ           2.02676        -5.42495        -5.42232
LJ           2.56179       -0.401227         1.14906
LJ          0.350836          2.2587         1.85742
LJ          -3.32992        0.914802        -3.34377
LJ          -6.23557         4.83404         -2.5531
LJ           3.64221         2.67692       -0.812576
LJ          -3.81164         -1.5357        -3.14752
LJ         -0.430039         5.58506         1.01926
LJ          -4.94725         3.63922       -0.187724
LJ           6.03145         3.46209         4.98661
LJ            4.9984         3.13767        -1.15805
LJ         -0.400526        -3.93781         2.58025
LJ          0.419716       -0.111509       -0.922428
LJ          -6.28629        -2.53354        0.918383
LJ          -4.52272         3.25783         2.19542
LJ          -2.89583         2.89295        0.757027
LJ           2.32128        0.127859          1.9179
LJ         -0.865269        -1.42154       -0.622606
LJ           5.27214        -6.00267         5.61697
LJ           3.90072         5.57127         -1.7013
LJ           6.18374         3.03648         1.64608
LJ          -1.36143         2.26672        -3.99888
LJ           2.21256         4.91355        0.312192
LJ          -3.62642         1.24198        -5.61882
LJ           2.21386         1.60458          5.8599
LJ          -1.59522        -0.51312         6.03069
LJ          -3.00234        -1.15606          3.3181
LJ         -0.350987         6.42702         2.09871
LJ          -4.24698         4.33685          5.9748
LJ          -2.03314        -3.58067         6.07783
LJ          0.375724       0.0284811        -3.63688
LJ           -4.3534         4.71635         5.14413
LJ           1.28153         3.83508        -3.25385
LJ           5.48095        -1.94539         3.53926
LJ          -1.09976        -3.95278        -4.90804
LJ            5.6418         1.68267         6.39046
LJ           3.22961        -4.15439         3.68249
LJ          -4.11687          4.5885        -6.03484
LJ          -4.39899         -1.3222         2.50943
LJ          -4.53301         0.09016         2.20707
LJ           5.82909        0.827155         5.95295
LJ           -3.9477        -5.61327        -2.16001
LJ          -2.09352         0.29501        -1.76084
LJ         -0.515175         4.32587        -0.92398
LJ           4.88523        -2.59552         1.16364
LJ          -3.47044         4.57553        -2.29816
LJ           1.82525        -4.16962        0.104798
LJ          -6.35563        -2.22431         4.34313
LJ          0.781234         -1.7813         -5.2994
LJ          -4.09064      -0.0389698        -5.00995
LJ           2.93403         4.06034         4.90715
LJ         -0.939168         4.83385        -3.40508
LJ            5.4641         3.67241       -0.595419
LJ           1.94602         1.85773         3.48952
LJ           4.07234        0.791528        -1.90347
LJ          -5.41444        -2.06223         -5.5194
LJ          -6.11158         1.35572         2.24755
LJ          -4.30373        -5.72962         2.66592
LJ          -4.84403        -4.49694        -5.86395
LJ           5.95888       -0.418768        -5.52525
LJ           4.70393         4.87307        -2.97744
LJ           1.12307       -0.634951        -1.57445
LJ           5.20536        -1.86068        -3.62572
LJ         -0.204824        -4.86028         6.07109
LJ          -1.11314         3.51932          3.8749
