108
#Comment!
LJ          -4.94184        -4.75123        -3.47265
LJ          -2.41638       -0.613383        -3.58369
LJ          -3.36096         -1.7365        -2.22142
LJ         -0.199491        -5.03848       -0.441454
LJ        -0.0533946        -3.02578        -3.01384
LJ           2.01276        -3.32416        -5.58128
LJ          -1.75744        -2.33318       -0.717865
LJ         -0.236131         -1.7966        -2.82711
LJ           3.99756        -2.69735        -4.35832
LJ           0.65866         -2.4178        -2.62599
LJ           1.88245        -4.81673        -4.37915
LJ           2.06817        -3.74647        -1.43889
LJ          -3.77988       -0.724433        -0.94888
LJ          -2.09063        0.315748         -3.7227
LJ          -2.38315         1.22889        -1.63283
LJ          -3.17712         -3.7832         -1.0708
LJ          0.470897        -0.72017        -2.82206
LJ         -0.264673        -1.31094        -3.77379
LJ         -0.551691        -0.91253         -1.5071
LJ           1.20652        -1.20226        -1.92409
LJ           1.39952        -1.73213        -3.37474
LJ           1.60403      -0.0850324        -3.38034
LJ           2.41313        0.683683       -0.620899
LJ           4.20294       -0.591353       -0.637448
LJ          -3.89034        0.878137        -4.69424
LJ          -4.50149         1.38483        -3.43166
LJ          -3.16865         1.08298        -3.39401
LJ         -0.833543        0.553173        -3.35021
LJ            -3.643         1.35512         -5.7572
LJ          -3.02229         1.74546          -4.816
LJ          -2.32594         1.91559        -3.07332
LJ          0.165864        0.487292        -3.02512
LJ           1.31545      -0.0755591        -1.40786
LJ          0.381102         1.79977          -3.704
LJ         -0.448926         2.80044        -1.77694
LJ            2.4602         1.24638        -2.33091
LJ           -1.8109        -5.34275        0.813891
LJ          -1.09996        -2.83745        -1.75863
LJ          -3.09693        -5.40898        0.359535
LJ          -1.74208       -0.426953       0.0476023
LJ          0.895594        -3.09014       -0.807188
LJ          -1.35991       -0.669063        -3.18988
LJ          -3.28271         -1.5759      -0.0181922
LJ         -0.342843        -2.20989       -0.266718
LJ          0.244125        -1.51581        -1.43959
LJ           4.91603       -0.484617        0.470645
LJ            1.9594        -1.45281        -1.28558
LJ         -0.249591        -3.02829         1.10065
LJ          -3.95941          -1.021        -2.57352
LJ           -2.1395        0.377862       -0.835823
LJ          -5.42472         1.32952        0.743172
LJ          -5.06989        -0.53557        0.585856
LJ          0.889128        -3.92256        -3.96702
LJ          -1.12671         2.04897       -0.927591
LJ          -1.19192        0.325886       -0.522787
LJ           0.23371        -1.19533         1.27438
LJ           5.87181        -2.08711        0.444721
LJ           3.37866        0.778579        -1.73402
LJ         -0.959755         -1.5109       -0.750952
LJ          -0.27338       -0.467544      -0.0897753
LJ          -3.71158         2.95537        0.910035
LJ          -1.89722         2.66411        -2.17013
LJ          -6.06512         4.38295       -0.397405
LJ          -2.89389       -0.225009       -0.288233
LJ          -2.33143        0.531217        0.265178
LJ          0.125669         3.47787       -0.508616
LJ          -1.26122         3.33115       -0.515168
LJ          0.541859         1.94817         0.17269
LJ          0.548774        0.166059       0.0470347
LJ          0.361749         4.74275        0.542396
LJ          0.410252        0.902916         1.56381
LJ           1.27958         3.74209       -0.367542
LJ          -1.72612        -1.59099         0.72557
LJ          -2.03782        -1.54631         1.76297
LJ          -2.72499        0.117532         3.47187
LJ          -3.09321        -4.07394        0.978067
LJ           1.56407        -4.75955         3.71391
LJ          -1.59489         -3.1707        0.886183
LJ            0.3135        -1.22559         3.80594
LJ          0.902623        -2.75834         1.49571
LJ          0.759574        -5.26368          1.9206
LJ           3.10461        -1.83041       -0.672559
LJ           1.62632        -2.86138        0.757046
LJ            1.7305        -3.93685         1.68934
LJ             -3.36        -2.78854        0.335678
LJ          -4.16624        0.635725      -0.0432972
LJ          -1.55337         1.24875        0.877256
LJ          -2.68167       -0.909135         0.41489
LJ          -3.41709        0.228733         0.74086
LJ         -0.633484       -0.886802         2.49969
LJ          -2.05735        -1.20203         2.86076
LJ           2.21987         -1.1268         5.16355
LJ           1.00895         -1.7208       0.0992436
LJ           2.84005         1.71697       -0.819543
LJ           2.50038         2.12849         2.20467
LJ           1.58095       -0.159771       -0.466479
LJ          -3.23811         1.26749        0.514738
LJ          -2.33728         1.86255        0.501213
LJ          -1.53981       -0.238123         4.50761
LJ          -1.61975         1.51733       -0.122851
LJ         -0.182706        0.151862        0.678837
LJ          0.799262         3.43627        0.554991
LJ         -0.251811         1.40547         3.27454
LJ         -0.354405        0.311859         3.04657
LJ           2.65513         1.39746        0.952303
LJ           2.75419        0.416198          1.6255
LJ           1.14473        0.587775         4.69674
LJ           3.33766        0.709525         3.10971
