108
#Comment!
LJ          -6.08007        -5.58766        -4.62082
LJ          -4.07968         5.09314         5.13681
LJ          -5.06439       -0.442388        -0.21211
LJ          -0.35334        -3.71293          -4.082
LJ          0.793889         6.23412        -3.18932
LJ           3.49038        -1.24747        -1.58627
LJ          -3.01691          5.0539         3.44374
LJ           2.21664         3.02285         3.58022
LJ        -0.0570369        -5.41183       0.0325755
LJ           5.72473        -1.33241         3.45382
LJ          -5.00831        -2.09906        0.293373
LJ           1.96978        -0.57377       -0.137689
LJ           1.19667        -1.96804        -4.53667
LJ           5.14159        -4.78823         4.76874
LJ           3.68921         -3.6375         1.25554
LJ          -5.04776       -0.526817       -0.842556
LJ          -2.32835          5.7818         1.31668
LJ          0.167167         5.95782         4.84115
LJ            3.8081         3.46312         5.04505
LJ           6.34768        -1.80772        -1.26517
LJ          -1.88148         3.00012        0.754632
LJ           3.73678         2.55089        -5.30154
LJ          0.309595         -3.5657         2.73164
LJ          -1.82375         4.00664        -4.70302
LJ          -1.17164         4.17303         1.49427
LJ           1.70523       -0.730893       -0.560602
LJ          -2.45532        -5.83062        0.918237
LJ           3.16821        -0.61227        -0.24957
LJ          -5.61529        -4.99706         1.25611
LJ             6.126        -4.82478         5.97332
LJ          -3.77401       -0.830095       -0.185719
LJ          -1.50961        -3.71716       -0.318472
LJ          -2.01311         1.24777       -0.260901
LJ          -1.59895         5.61073        -2.87144
LJ            1.0143          5.4702          1.4847
LJ           -2.3017         4.95648         2.31138
LJ           4.69193        0.778198        -1.58552
LJ           1.92099         5.31349          2.5282
LJ           1.91667         -1.0695         3.71175
LJ           2.74291        -4.11533        -5.10706
LJ           3.47896         3.16196       -0.936925
LJ           3.00998         4.96903       -0.196016
LJ          -3.63245         5.32849         1.04833
LJ           2.84935        -2.75305       -0.485642
LJ           2.59527        -6.20088        -3.56948
LJ         -0.643486         6.44042         2.33803
LJ           6.35387        -2.57729        -0.33239
LJ           3.64663        -3.01904        -4.26401
LJ           5.54202         3.30806       -0.728736
LJ          0.708234        -5.33562        -3.42087
LJ          -2.25885         1.50453         4.58089
LJ         -0.550804         5.98837        -4.62335
LJ           1.21884        -5.61085        -5.00901
LJ          -3.23768        0.388882       -0.987487
LJ           2.25661         6.40536        -4.49594
LJ            4.2275         5.07929       -0.462871
LJ         -0.331045         3.95225         4.61689
LJ            4.1567       -0.927521         2.99272
LJ          -3.63298        -2.73272         6.21114
LJ           5.66242        -4.03212       -0.124435
LJ          0.311949       -0.899372         2.23234
LJ           6.32674         5.30359         -6.3736
LJ          -2.52286        -5.39587        -6.00459
LJ          -4.37124         6.37023         5.82588
LJ          -1.11139        -2.68069       -0.996405
LJ           -4.1123        -1.78694        0.510653
LJ          -3.79656       -0.166864        -6.43763
LJ           5.81228         2.22889         0.94585
LJ          -4.47183         2.11503        0.835197
LJ           6.40549        -5.36591         -1.2235
LJ          -3.54474       0.0213621        0.429612
LJ          -4.49601        -4.24334        -3.90561
LJ           3.33925         1.56777        -2.37229
LJ          -3.42029        -1.67972        -3.10111
LJ          -5.14639         6.41897         1.08077
LJ          -3.43226        -3.82393          1.7257
LJ         -0.810351        0.399211        0.991113
LJ           5.08556        -3.97853        -1.75439
LJ           6.10512         5.72383         -3.3734
LJ           4.84217       -0.757559        -2.17463
LJ          -4.77614        -5.42392        -1.67794
LJ          -2.10657         2.97748        -3.68109
LJ           4.80919        -5.64449        -3.09375
LJ          -4.71234       -0.157869        0.569557
LJ          -1.94374        -2.50052        -6.18189
LJ          0.728496         1.99893        -3.80184
LJ          0.869167         4.10099        -2.77132
LJ           1.81634         6.01751        -5.82962
LJ           -1.4567         1.38591        -4.97821
LJ          0.845714       -0.858729         5.87229
LJ          -3.86215        -6.24217        -3.26893
LJ           6.01177         2.32456      -0.0799885
LJ           1.55996        -2.21534        -3.68802
LJ         -0.426628        -4.89762       -0.539428
LJ          -5.99368         3.63886         4.65111
LJ           1.80564        -3.38699        0.268876
LJ           3.88779        -1.32868        -1.43213
LJ           5.46403        -3.13135         6.44897
LJ            3.8259        0.717433       -0.318178
LJ          -4.04852         1.34733         1.07144
LJ          -4.86649        0.430494         1.24748
LJ         -0.761087         3.22083         1.12488
LJ          -5.77319        -6.02838        -5.86342
LJ          -5.51291         1.99464       -0.856153
LJ          -5.83345        -3.04789         4.58492
LJ           3.33215         4.24292        0.268925
LJ           6.06507        -1.06771         4.96454
LJ          -0.22469         5.10842         1.73146
