108
#Comment!
LJ          -3.90565         1.16954        -2.86265
LJ          -1.94109         2.61949        -2.53244
LJ           1.92088         5.49484         4.26823
LJ           5.15297        -6.04591         4.43341
LJ          -2.91551        -6.37603        -5.52567
LJ           -5.7419         -5.5257         2.65287
LJ           2.47447         -5.1203        -2.81215
LJ           5.14068       -0.891988        -5.80482
LJ           4.54346         5.96053        -4.92788
LJ          -2.83253         1.23887        -1.88141
LJ          -3.27201        -1.75679         4.90712
LJ          -3.81224         5.76702        -2.34239
LJ           1.39447         3.07883         5.99536
LJ           3.35099        -2.03045        0.897617
LJ         -0.640416       0.0439202        -5.16099
LJ           4.87163         6.10761         1.57088
LJ           2.69217        -3.92071        -1.33369
LJ          -5.74162        -6.34005        -3.52407
LJ          -4.61995         1.33126         5.34319
LJ         -0.580166        -6.24763        -4.61824
LJ          -2.16639         6.14217         5.36839
LJ           -4.5644        -3.03711         1.52627
LJ          -1.37994          5.8717        -4.44116
LJ           2.13798         5.64715        -4.19857
LJ         -0.595488        -1.56486        -5.94186
LJ          -1.54075         3.46611         2.10647
LJ          -5.51666         3.49817       -0.262407
LJ         -0.149775       -0.571713         2.73877
LJ          -5.44275         5.99141        -1.16432
LJ           6.34041        -4.49189       -0.130978
LJ           5.31145        -5.29403       -0.102128
LJ         -0.520635         -6.1967         3.43143
LJ           5.51417          5.6092      -0.0203956
LJ           4.90448        -5.09925        -2.64592
LJ           1.33932         3.00249        -2.55906
LJ           5.11588         1.71392         4.78677
LJ           1.06624         4.50418        -3.50421
LJ            4.3338        -6.02699        -2.99433
LJ          -3.06058         3.76924          5.1361
LJ          -2.03947         6.13411        -5.43832
LJ          -5.25778         1.31394          1.5273
LJ           5.15664        -3.07928        -0.70105
LJ          -5.75482         3.19086        0.371208
LJ           5.41733         2.44874        -1.29782
LJ          -3.14174        -4.62826         3.90621
LJ          -2.64556         -4.1744         1.72014
LJ           2.74852        -5.66883        -2.70645
LJ          -1.36971        -2.82518         0.59737
LJ           2.94982        -1.74446        -1.01506
LJ           5.97248          5.0428         3.31501
LJ          -4.16344       -0.635476        0.211552
LJ           1.09696        0.310136         6.16729
LJ          -2.21286        -0.68642        0.774816
LJ          -1.18534            4.49         2.66714
LJ           4.08158         4.54491        -3.69684
LJ            6.4495         5.97502         3.92332
LJ           3.83607        -1.01918        -4.75233
LJ          -5.66938         5.99292       -0.468321
LJ          0.744211         3.55007        -5.34412
LJ          -1.86369         1.14225         5.64777
LJ           1.67464       -0.109194      -0.0573762
LJ          -4.26161        -4.37157        -6.17345
LJ           -2.2553         5.22717         1.81607
LJ           3.76375        -3.24776         5.74681
LJ           5.74975         5.88161         4.14332
LJ          0.763454        -2.61708         2.02424
LJ          -2.96008        -4.30658        -3.52476
LJ          -6.35571         1.63176         6.32533
LJ          -5.76285        0.841871        -4.32781
LJ            4.8103        -1.54802         2.08283
LJ           3.99526         1.35953        -2.77539
LJ           2.84364        -5.51602        -3.67672
LJ           3.20104        -6.33734        -5.08359
LJ        -0.0304993         1.75777         1.04869
LJ           5.49969        -3.21492         6.08562
LJ          -2.70741        -1.98689         4.24015
LJ           5.26813        -5.94854        -5.57388
LJ           1.72819         1.77796         4.53186
LJ           4.95405          6.2206        -3.43857
LJ           2.79616        -2.25275        -6.30726
LJ          0.402718         1.23526         1.56917
LJ           4.61164         -5.7388         1.14715
LJ          -4.64169        0.346428         -6.1727
LJ          -5.72985        -4.19985         3.82005
LJ           3.35303         4.73182         2.47688
LJ          -4.72586        -2.36016         2.82971
LJ          0.388933       -0.247206         3.09566
LJ          -4.10716        -4.80142        0.606188
LJ          -2.78489         4.07468        -4.16975
LJ           5.46266         5.43156        -5.89204
LJ           4.34331         -2.6737         6.31717
LJ          -2.19045        -3.33725          5.3427
LJ          0.249317        0.897938        -5.47787
LJ           5.81766       -0.471789      -0.0659643
LJ           2.87817        -5.88108        -3.95689
LJ         0.0536707         1.05425        -4.69976
LJ          -2.10449          3.0779         1.16266
LJ          -1.14235        0.822753         2.62886
LJ          -4.18186       -0.382905         4.17263
LJ          -4.47318         -3.3374         3.15285
LJ           2.20705        -1.27191         2.02527
LJ            3.1376        -3.20834          4.2589
LJ         -0.867234         -5.7561         0.35774
LJ         -0.860573        -1.77917         2.95613
LJ           3.55497         -4.0993        -0.96881
LJ         -0.602263         6.28386        -3.53683
LJ           2.38498        -3.92062         4.65217
LJ           2.84968        0.217418        -6.05028
