108
#Comment!
LJ          -3.51845          6.0452        -2.47087
LJ           3.19853         2.22072         2.38753
LJ            1.8318         1.68455         3.71363
LJ        0.00398786         -3.7183        -3.05717
LJ           -4.3971        -1.98962        0.937602
LJ           3.99403         -1.2194        -4.52958
LJ         -0.711093         1.58011        -1.66386
LJ          -3.67016        -4.96145        -3.72266
LJ          0.981914        -2.34187        -1.06709
LJ           2.28536           -2.77         5.40686
LJ          -3.04329        -6.16842        0.999889
LJ          -3.41306         1.39031         5.56183
LJ          0.734447        -3.33972         4.60691
LJ          0.865609         2.50124        -1.81664
LJ           2.49162         6.33639        0.905487
LJ           4.37161         -2.7088        -3.49317
LJ           3.78519         3.73796         3.49046
LJ            1.2849        -5.19537        -2.99896
LJ           3.73411        -2.94314        -4.73581
LJ        -0.0585969         -1.1642         2.68164
LJ           5.83922          1.2833        -3.60005
LJ           -3.3581         3.38504         3.55854
LJ          -1.41876        -3.92502        -3.94235
LJ          -0.92915        -5.49923         3.25271
LJ          -3.44597        -3.28184        -3.72128
LJ         -0.280488      0.00237708         5.30687
LJ           4.90162        -3.67955         5.25602
LJ           5.33033       -0.602123       -0.155181
LJ           5.35715         6.01302        -5.49319
LJ          -4.87999         5.90818        -4.67351
LJ          -2.81634        -4.05407        -5.78658
LJ          -6.45682        -6.11715         3.91818
LJ           3.90891         1.92391        -3.61852
LJ           5.42798          5.9011        -4.66621
LJ          0.490415        -2.79598         5.43542
LJ          0.331169         3.62476         6.34147
LJ           1.04328         4.90412       0.0536589
LJ          -1.02231        0.991958       -0.273046
LJ          -2.17458        -3.60538          2.3466
LJ         -0.225773        -3.47156        -6.05187
LJ           -2.1493       -0.656329         4.27561
LJ           3.89413        -3.34463         -3.9862
LJ          -2.48697        -2.92513         2.82689
LJ          -3.38566        -4.96697        -4.92636
LJ          -1.16878         1.31892        -4.23145
LJ          -3.89807         -5.8479        -1.11191
LJ           3.71054        -6.38134        -5.25317
LJ          -5.89659          2.7895         4.73325
LJ          -1.19196         3.39817        0.640503
LJ           4.36028          2.6037         2.63048
LJ           4.90645        -1.85894        -1.08325
LJ          -2.67623          1.5319        0.365586
LJ           3.41754         1.05748         1.93378
LJ         -0.531744      -0.0929488        -5.11564
LJ          -5.16877        0.824125       -0.835376
LJ           2.36096        -5.84215          -3.135
LJ          -5.69986          5.2428         3.55247
LJ           4.90123           2.818         3.07197
LJ           2.69807        -1.69649         6.29377
LJ          -6.45845        -4.37424         1.77237
LJ          -5.37238       -0.264972         -1.3717
LJ            0.5977           1.752       -0.418639
LJ          -1.53287        -2.24671         3.72852
LJ           6.08348        -3.94201        -3.80205
LJ          -4.50915         1.11396        -4.02315
LJ          0.234269        -6.20444        -5.80245
LJ           -5.2595        -4.08393         4.34429
LJ          -4.06897         4.25517         3.15448
LJ            6.3287         4.74034        -4.07885
LJ           3.05105         5.64323        -2.38003
LJ           5.64615        -2.21982        -2.87353
LJ            4.2819         3.12412        -3.95808
LJ           3.35916        -5.79309        0.849778
LJ           3.67115         1.90647        -4.18931
LJ           -5.9782         -2.4309        -0.75779
LJ          -4.30921        -4.05035          5.0315
LJ          -2.30923        -5.41845         6.17674
LJ           2.86374        -3.94826        -1.71891
LJ           3.55115         2.46496         2.59073
LJ          0.240119        -3.80369       -0.328805
LJ           3.34372      -0.0731325       -0.565168
LJ          -4.65417        -2.25721        -4.29782
LJ          -1.75151        0.963443        -3.76555
LJ           2.99493         3.90744      0.00597136
LJ          -1.35963         1.69934        -5.74339
LJ           1.57556         2.00046        -3.72188
LJ          0.278137        -4.36578        -2.19569
LJ           2.05356        -6.00924         4.18682
LJ           2.44744         5.49414         3.17058
LJ           4.88062        -5.75366         -5.8261
LJ         -0.506906        0.751843         4.79009
LJ         -0.119121       -0.934407        -5.61394
LJ          0.844332          -4.398        -2.19389
LJ           4.76707         3.68859        -3.59344
LJ          -6.27968        -5.87405        -5.89479
LJ           5.14142         -2.1855        -2.60488
LJ          -1.99248        0.384312       -0.195313
LJ           2.04685        0.385978       -0.605828
LJ           5.43151         0.98888        -1.82696
LJ           2.06504        -3.73668        -2.75726
LJ           -6.1101       -0.902842         3.29739
LJ         -0.514838       -0.221787        -5.34582
LJ           5.49632       -0.344089         2.37279
LJ          -4.95799         3.51262         -5.9192
LJ          -4.75046        -2.37878        -2.01782
LJ          -4.01468        0.695331        0.367396
LJ          -3.13405        -3.26397        -5.26252
LJ          -2.91625         4.74134         5.85327
