108
#Comment!
LJ          -5.13353        -3.09655        -1.52953
LJ          -3.76179         6.07307        -4.19094
LJ           4.42864        -1.02362        -3.69068
LJ           -4.9563         5.09509          0.1843
LJ         0.0440194        -3.27368        -1.79162
LJ           4.72057        -2.28228        0.256588
LJ          -3.83995        -2.36862         4.34069
LJ           2.85087         6.06252        -6.30164
LJ           2.79587         3.91938         2.11603
LJ         -0.554924        -5.34934       -0.207243
LJ          0.289973      -0.0555994         1.15544
LJ           5.49729         2.12649         5.53096
LJ            -1.269        -5.58002         2.55482
LJ          -1.49168         1.05094         1.90538
LJ           2.69332         1.66365         5.46556
LJ           5.95205        -2.55365        -4.68953
LJ          -6.30345         6.25054        0.113905
LJ           -1.2693        -4.48712         2.69116
LJ          -3.13869        -2.86321         6.07922
LJ          -4.72797        -1.25476        -3.65204
LJ           -3.5121         3.30661        -3.59787
LJ           2.88126         1.02145         2.63726
LJ          -4.72402       -0.540761         3.79776
LJ          0.729177         -5.6289        -4.29466
LJ           3.40778        -3.45351        -1.87145
LJ           4.80407          -1.317         -3.9734
LJ           2.23148        0.561185         2.98433
LJ        -0.0813329         5.22061         5.68889
LJ           6.31346         1.51957         2.94856
LJ          -6.29595        -5.04102          5.2885
LJ           5.68403        -2.06238            2.36
LJ           0.94361         3.54164         6.23077
LJ           1.13288        0.901386        -3.11999
LJ           5.38312        -1.71801        -3.15414
LJ          0.650795        -4.55176        0.389551
LJ           0.60336         5.68244        -5.97745
LJ          -3.30053        -3.01526         4.50294
LJ          -5.25635        -4.96118        -2.16823
LJ           5.21157        -4.84987        -1.69901
LJ          -6.10121        -5.77665         2.61029
LJ            3.7726          5.5076        -1.32582
LJ         -0.553905         -4.5566         1.08697
LJ           2.41091         0.78922       -0.946707
LJ           5.18024        -1.16494        -5.74933
LJ           4.74883        -2.09002          3.7213
LJ          -5.20985        -4.09375        -4.74912
LJ          -2.40173         6.03119         1.50927
LJ           2.06246        -3.82486        -2.58967
LJ           6.17675        -5.47871        -2.90332
LJ           5.33842         2.47817         1.73186
LJ            2.6074         3.26546         4.09511
LJ          -3.77901        -4.49773         3.36369
LJ          -2.14371        0.603371       0.0460535
LJ           6.16489         0.17432         5.40358
LJ          -3.48166        -5.88883        0.267068
LJ           5.36295        -4.70584         6.34822
LJ          -4.00856        -6.03169        -4.56097
LJ          0.336127      -0.0219076         1.95076
LJ           2.51448          2.1463        -4.86683
LJ            -4.659         1.55071         2.98057
LJ          -5.09916         5.26875        -1.26712
LJ          -3.89033        -3.87807         2.91576
LJ          0.205771         6.32525         5.18749
LJ           3.02285        -5.96843       -0.236794
LJ          -1.15512        -2.79901         1.16587
LJ           2.68635         2.77689         -6.4627
LJ           2.92206         5.55372         5.05248
LJ           2.83913        -4.77632         5.20979
LJ           3.74763       -0.985392         2.05668
LJ          -3.34046       -0.545731        -0.50887
LJ         0.0132682        -3.80834        -1.35367
LJ           2.65326         4.70292         6.03068
LJ          -3.18131        0.267909         5.93531
LJ          -4.89887        -6.10325         6.02445
LJ         0.0136011        -3.63537       0.0281672
LJ           2.08328         2.36998         4.81708
LJ           4.48647        -4.27314        -0.33033
LJ          -1.60322        -5.99472          4.9724
LJ           2.93664       0.0978722         5.23659
LJ           1.13723        -1.90756         5.84887
LJ           3.96828         3.47178        -1.71284
LJ          -5.06479        -5.89409        -2.96258
LJ          0.281783         1.33133         4.97586
LJ           1.86642        -1.86424         -0.2671
LJ          -5.54629         2.29498         3.23991
LJ           6.21841        0.172412        -3.76852
LJ          -3.91407        -1.84586        -6.42587
LJ          -4.70667         1.58804        -5.73365
LJ          -3.94168        -4.48435        -2.08427
LJ           5.27499         2.51534        0.720969
LJ         -0.334943         2.11488       -0.521779
LJ           0.20691        -2.16409        -1.27776
LJ            1.0013        -2.25532        -4.34392
LJ           3.05588       -0.790536         1.76641
LJ           6.23291        -3.87668         -3.7863
LJ           5.93883       -0.927198        -3.52918
LJ          -3.11421         4.10141         2.59439
LJ         -0.114367        -3.75328        -5.55416
LJ           3.98982        -1.90436         0.85517
LJ           4.34093         -2.1785        -1.24146
LJ          -2.68121         1.91421         1.78148
LJ         -0.533002         2.68095         3.61843
LJ          -5.08483         -3.0857       -0.938699
LJ          -6.19779        -5.03304        0.696672
LJ           3.70254        -4.96117        -5.16734
LJ          -3.45393         4.30453         -4.4601
LJ          -0.18772         3.62898        0.770728
LJ          0.377373        -4.85083         1.04329
