108
#Comment!
LJ           1.80412        0.117708        -3.22053
LJ           4.90016           -1.16       0.0768801
LJ           1.64269        -1.19799         1.50142
LJ           5.11139         4.35577          2.2849
LJ          -2.37098        -3.93884         4.48641
LJ           3.16653         6.13567          0.7818
LJ            -1.598        -1.11552         5.15331
LJ           5.26545        -1.83674        -3.08176
LJ          0.954269        -5.64914        0.960644
LJ          -4.76993       -0.225707         -5.5235
LJ          -5.69671       -0.873467         -5.9893
LJ          -4.03739        0.544204        -1.55741
LJ          0.535227         3.10088        -2.14922
LJ          -5.61244         2.05412         1.18112
LJ          -2.00006        0.566096        -5.59828
LJ         -0.454631        -4.74044        0.469259
LJ           1.50419        -5.35694         5.90921
LJ          -1.48345         1.32291        -4.11485
LJ          -4.35436        -2.20475         4.66762
LJ          -3.22464       0.0913566          -4.818
LJ          -2.14844        -0.14485         2.67307
LJ           4.25712         6.33386          1.4291
LJ          -5.33401        0.660645        -3.84085
LJ           1.29314        -5.54368         3.74994
LJ          -1.81367        -4.54785         1.80888
LJ           5.26229        -4.28526        -4.05728
LJ          -5.08435         3.37592         -2.9249
LJ          -6.02288        -2.33199        -3.97948
LJ           1.35573        -3.78137        0.154385
LJ           1.69419       -0.377064         6.00836
LJ           2.14076         3.66327        -3.34715
LJ           4.68126        -5.63754       -0.886929
LJ            6.0161        -2.35036         4.45041
LJ           3.64379         -1.5336       -0.524875
LJ           4.53387         5.28821        0.672202
LJ          0.191189       -0.760431         6.23571
LJ         -0.340023         5.78013         3.73533
LJ          -4.78746       0.0697891         2.35681
LJ          -3.56777        -1.47373         6.36904
LJ           6.12894         4.70129       -0.453799
LJ           1.19497         -4.3602        -4.80313
LJ          -3.32971         6.41255         5.28318
LJ         -0.184188        -4.76583        -4.00559
LJ          -5.27209        0.502544         1.31967
LJ          -4.35884        -5.05642        -4.53622
LJ           5.23508         2.94715         0.89849
LJ          -5.88174        -2.64437        0.865774
LJ          -1.98432         1.51464         6.31276
LJ        -0.0273324        0.168522         4.86733
LJ           5.96524        -2.83452        -3.37446
LJ         -0.171668        -4.21712       -0.746133
LJ          -1.45452        -4.44119        -1.72494
LJ         -0.820228        0.717522        -1.73986
LJ           3.26198         6.02492        -1.05871
LJ           4.16762        -5.53066        -3.44079
LJ           5.77144         4.52867         5.13067
LJ          0.768691         3.82011        -4.66239
LJ          -3.46657         5.97052        -1.03571
LJ          0.848797        -2.46721         1.01793
LJ           5.77376         3.43789       -0.717883
LJ           1.39999      0.00120114         3.43207
LJ          -3.32888         4.41799         4.75817
LJ          -6.12626         4.72376         5.55393
LJ           3.64678         5.90134         2.52416
LJ          -6.33667        -4.30336         3.55662
LJ            3.5338        -4.68339        -3.80567
LJ           4.48841        -1.61904        -2.40133
LJ          0.611668         1.76825        -1.16958
LJ             5.661        -1.29884        -2.26336
LJ         -0.556543         4.36312          4.2654
LJ          -3.63152       -0.231835         1.66669
LJ          -5.52254       -0.751618         5.44632
LJ          -6.44695        -1.42826       -0.242595
LJ           1.27001        -5.41772        -5.85716
LJ          -2.76564        -1.03143         -3.4483
LJ           2.90611          2.3746        -4.48634
LJ          -5.14908        -4.39914        -1.83574
LJ         -0.515542        -1.39227         5.16584
LJ          -2.91006         -6.1781        -4.91135
LJ         -0.440722        -3.09269        -5.85437
LJ          -1.42461        -2.12066        -2.24821
LJ           6.30234       -0.309413        -2.54782
LJ           3.19376         2.93465        -3.37478
LJ          -3.60418       -0.287163          4.0339
LJ          -2.32289         3.83545          4.8735
LJ          -3.80303       -0.471427       -0.940075
LJ          -2.97752        -1.06222         1.91025
LJ           5.39127         0.22856         3.80232
LJ           3.81182       -0.117635          -1.118
LJ         -0.299929         3.65787        -2.64646
LJ          -4.65472         2.98901         5.18271
LJ           4.92625       -0.463046        -2.78722
LJ          0.569417         4.95304         5.55819
LJ           2.52348         1.97175         3.45319
LJ           -2.8365        -5.80282        -6.19899
LJ           5.27911       -0.524506        -1.42974
LJ          -1.47489       -0.339659         3.92589
LJ         -0.291417        -2.44072       -0.132865
LJ         -0.113022         5.91679         5.14428
LJ            2.8967         3.49234       -0.540278
LJ          -3.20515        0.854936          2.7541
LJ           4.35873       -0.199988        0.844217
LJ            4.2344         1.28686        -1.48212
LJ          -3.41631       -0.668229         0.60574
LJ          -5.50312         4.33456        0.033548
LJ           3.89451         2.07689         3.74006
LJ          0.910655        -5.64637        -1.39078
LJ          -6.03342         0.91321        -4.62575
