108
#Comment!
LJ          0.989884      -0.0777221        -3.20022
LJ           4.60564        -1.22931         1.91907
LJ           2.52535       -0.622864         1.21733
LJ           4.95096          3.4576         1.32816
LJ          -3.27321        -4.75321           5.998
LJ           3.55041         5.59653        0.467011
LJ          -2.40248        -1.17272         4.16173
LJ           4.72216        -1.86975        -3.64572
LJ         -0.812473         4.96268          1.5272
LJ          -3.47087        0.445409        -5.82011
LJ          -4.22999       -0.771306        -5.31735
LJ           -3.7335         2.07687       -0.514203
LJ          0.792913         4.80182        -1.06528
LJ          -4.46489        0.146014        0.735849
LJ          -2.57178        0.848881        -5.54535
LJ          -1.29003        -3.53715         1.92338
LJ          0.474977        -4.67757         6.04104
LJ           -1.1218         3.26645        -4.62445
LJ          -3.44363        -2.67011         5.80061
LJ          -3.62462         2.25443        -5.06646
LJ          -2.00945         1.21413         2.34411
LJ           4.25638         5.73277         1.81121
LJ          -6.10948        0.871146        -4.71595
LJ           1.20089        -4.90516           3.363
LJ          -2.16349        -3.47796        0.554243
LJ           5.65675        -5.51993        -2.67415
LJ          -5.46932         4.56533         -2.0792
LJ          -5.90092        -1.26453         -4.2506
LJ            1.0757        -5.53807        0.695135
LJ           1.88546      -0.0535212         4.67022
LJ           1.76994         3.96486        -3.63049
LJ           3.90949         6.37162      -0.0348531
LJ           5.84173        -2.10615          4.2718
LJ           3.30178        -2.47586        -0.95011
LJ           5.38996         5.26097         1.18638
LJ         -0.667849          -1.077         6.25589
LJ          -2.41644         6.01191         4.47156
LJ          -4.35205       -0.398644         1.71923
LJ          -2.14591        -1.16738         5.94074
LJ           -6.0105          4.4757      -0.0388009
LJ           3.19525        -3.00385        -3.00489
LJ          -1.19196        -5.42654         4.52259
LJ          0.898734        -3.90567        -2.33707
LJ          -4.66445        0.461542         2.37735
LJ          -6.08772         5.76109         -5.8426
LJ           5.05973         1.63931        0.713171
LJ          -5.37708        -3.09468        -0.66891
LJ          -2.61163        0.608135         5.94661
LJ           1.14847       -0.949573         5.35783
LJ           5.82002        -1.30117        -1.90108
LJ          -1.38791        -3.75604        -0.30171
LJ          -1.91056        -4.78952        -3.44763
LJ          -2.10653         3.00545        -2.14757
LJ           3.20303         5.17677       -0.932457
LJ           3.10184         6.18965        -2.70016
LJ          -5.41718         4.74849         5.39559
LJ           2.60342         3.36347        -4.38825
LJ          -4.05931         5.51405        -1.55802
LJ           1.36838        -3.46081       -0.409575
LJ          -6.35864         5.16523        -1.05521
LJ          -0.21063        0.338499         4.87469
LJ          -3.27094         3.93017         3.50248
LJ           -5.2851         5.79795         5.66122
LJ           3.56131        -6.26663         1.48579
LJ           6.12078        -4.98691          3.0274
LJ           3.33159        -5.23929        -2.71537
LJ           3.72823        -1.98609        -2.21296
LJ           1.05141         2.30365        -2.73225
LJ           5.06475         -1.6209        -2.62945
LJ          0.732901         3.95848         3.49201
LJ          -2.41448        0.350741         1.26306
LJ          -4.72697        -1.12141         3.86081
LJ          -6.29617        -2.62301          -1.239
LJ         -0.428852        -4.13356        -5.64526
LJ          -3.73709        -1.77108        -3.84492
LJ           2.44993       0.0837526        -2.67319
LJ           6.09679         5.56087        -4.17165
LJ          -1.23734        -1.33418         5.02141
LJ          -4.61374        -6.34128         -4.4842
LJ          -1.72261        -4.14906        -4.74872
LJ         -0.194206        -1.10977        -3.34412
LJ           5.33461       -0.856576        -3.53042
LJ           3.19338        0.974255        -2.01348
LJ          -2.86906       -0.660869         5.17919
LJ         -0.726684         4.27452         5.69321
LJ          -3.47414       -0.459865       -0.513815
LJ           -2.1101        -0.28582         2.29056
LJ           -6.3398         2.05036         5.11228
LJ           4.43805       -0.645398        -1.78184
LJ          0.784815          4.6261        -2.15939
LJ          -4.66602         3.64975         4.46697
LJ           5.79538          0.2064         -2.8022
LJ          -2.10438         4.98038        -5.91803
LJ           2.17747         1.78056         2.16922
LJ          -3.40327        -5.77756        -4.97556
LJ           5.13012        -1.79738         -1.2954
LJ          -1.33143         -1.3484         3.83017
LJ         -0.107152        -3.65496         1.99698
LJ         -0.249569        -5.72216         6.29246
LJ           5.66764          4.6592        -1.14396
LJ          -3.42677        0.809487         1.47183
LJ           3.41905        0.311766        0.225817
LJ           4.21693          1.2779        -2.71312
LJ          -2.25895       -0.210104         0.19755
LJ          -5.72539         3.49991        0.920365
LJ            4.5257         2.52009         2.07982
LJ         -0.775788         -4.6163         -1.3852
LJ          -5.87233         1.25914        -5.82613
