108
#Comment!
LJ           4.47321          5.2433        -4.19424
LJ          -4.39059        0.379683        -4.00075
LJ          -4.03218        -1.19885       -0.217025
LJ           1.66593        -6.44683         3.20246
LJ         -0.662471         -1.4079        -3.96544
LJ           4.75967        -6.38883         3.65065
LJ         -0.966232        -2.57554         1.08784
LJ         0.0604836       -0.477716         -3.3562
LJ          -5.82538        -2.69041        -6.02915
LJ            1.4789        -2.99163        -4.29583
LJ           2.74246         5.90925        -5.78005
LJ           4.86901        -5.26707        -1.63972
LJ          -5.45392       -0.840165       -0.531129
LJ         -0.521668         4.10886        -4.13303
LJ          -1.17709         2.05912        -1.47063
LJ          -4.15121         4.77116        0.170202
LJ           1.43906        -1.47404        -4.00206
LJ          0.299446        -1.35615         -5.9694
LJ          -2.10221       -0.693817        -2.02053
LJ           2.31359        0.114533       -0.429425
LJ          0.446765        -3.68513        -4.28114
LJ            1.8689        -2.08268         -6.0872
LJ           3.84447          1.9772         2.39281
LJ           -6.1397        0.373896         2.74154
LJ           6.33022       -0.465017        -6.29492
LJ          -4.40981       -0.855352        -5.88635
LJ          -5.08135       0.0256178        -6.04911
LJ          -1.88194         2.94004        -6.04964
LJ           6.01072          1.7167          5.4404
LJ           5.94934         3.66264         3.81565
LJ         -0.763145         3.64468          -3.176
LJ           1.86604        -2.25835        -4.94104
LJ           4.35996        0.266876        -5.05342
LJ          -0.22174         3.53003         -5.1052
LJ           1.15665        -4.28286         -4.5439
LJ           3.50986        0.354527         -2.1022
LJ          -1.91998         5.51381         3.17998
LJ        -0.0217836        -1.53929       -0.221924
LJ          -2.04531         4.20744         1.15261
LJ          -3.41125       -0.274806       -0.198867
LJ           1.58897        -1.97375       -0.701034
LJ          -3.72963        -2.02121        -4.80043
LJ          -5.43157        -6.13813         1.10269
LJ         -0.725552        -3.34049       0.0239461
LJ         -0.032266        -2.52245       -0.996271
LJ           -5.3673          1.2335         1.90108
LJ           2.63192        -0.60883         -2.3558
LJ          -2.44008        -2.32903        0.576311
LJ          -6.19975        -2.48452        -3.86666
LJ          -5.58758        0.299557        -0.83947
LJ           6.42969         1.96556          1.9782
LJ           4.16656         1.65364          3.3956
LJ           2.82729         3.71143         -6.2859
LJ          -3.71407         3.31867       -0.248084
LJ         -0.807804         2.89113        -2.39094
LJ         -0.518409        -2.73721         4.87979
LJ          -1.79022        -1.41692        -6.20116
LJ           5.27409         1.16106         -2.9386
LJ          -3.24928        -3.79601        0.652849
LJ          -4.30873       -0.401855        -1.01894
LJ          -4.48908          5.6754         4.21208
LJ          -2.15781         3.99706        -5.03911
LJ           3.31587        -5.24575       -0.684894
LJ          -4.58718        0.601749        -0.57376
LJ          -3.44054         2.36504        0.699014
LJ          0.224873         5.14895         1.82894
LJ          -2.69041        -4.99445        -1.04664
LJ           2.01645        0.537623        0.572755
LJ             2.613        -1.46583        0.181083
LJ           1.50369         4.59445         1.94978
LJ          -1.13336        0.808055          1.6078
LJ           2.23062        -4.54434     0.000567803
LJ         -0.929922        -1.55874        0.350973
LJ          -1.46525       -0.796863         1.29917
LJ           -4.0717         2.41249         4.09443
LJ          -4.28457        -6.10458        0.372221
LJ           6.02018        -6.10064         6.21712
LJ          -1.79737        -3.18374        0.996541
LJ           1.20278        -4.40841         5.70894
LJ          0.901401         -3.2606        0.910083
LJ          0.516696         3.97473         3.66688
LJ           3.83798       -0.992806        -2.18147
LJ           1.90081        -3.09679        -1.00495
LJ          0.573831        -3.30301         2.05349
LJ          -5.11159         -4.0797        -1.57181
LJ          -4.61219         1.15529        0.742937
LJ          0.257084         1.04419        0.863773
LJ          -1.53729       -0.935199        -1.16272
LJ           6.29425      -0.0277874       -0.430489
LJ         -0.309649        -1.63568         4.15335
LJ         -0.107601        -2.09694         3.09224
LJ           4.98771       -0.672038        -3.85317
LJ          0.937506        0.334013        -1.32887
LJ           3.23469         2.01573        -1.79258
LJ            4.6476         3.26916        0.433537
LJ           2.73381        -0.22515        0.692482
LJ          -5.16378        0.185081        0.177364
LJ          -3.23356         2.04422       -0.569114
LJ        -0.0258381        -2.40815        -3.99973
LJ          -3.87026         3.03759        -1.33959
LJ          -1.29936        0.328608         2.63642
LJ           2.24117        -5.70276      -0.0764101
LJ          0.617583       -0.876947         3.84189
LJ        -0.0748855        0.550872         2.26844
LJ           3.86644        0.242499         1.50053
LJ           2.81032         1.00844         1.87214
LJ             3.295         1.22339        -2.63698
LJ           3.86652        0.834654         2.52313
