108
#Comment!
LJ           -3.3036         -3.9729         4.68744
LJ          -1.25887        -3.69036        -5.51672
LJ           5.46742         1.81986         3.67926
LJ         -0.480363         2.71188        -5.19123
LJ           -3.6397        -5.82493         1.21255
LJ          -2.84264        -2.03302          -5.849
LJ           3.77164          2.2215         4.33079
LJ          0.757108         5.79079         3.17797
LJ           2.46683         4.36448         0.93455
LJ           5.22398        0.883548         4.47433
LJ          -5.31161       0.0889756         0.66566
LJ           4.40119        -5.73015         3.03893
LJ            -6.262          3.4521         -1.2807
LJ           -4.4765         5.71598        -4.98848
LJ           5.14551        -5.30357          5.6626
LJ          -2.97759         2.74535         3.15336
LJ           1.34825         3.78693        -2.89233
LJ           2.39284        -2.86711         2.28906
LJ          -3.52195         5.06851         3.94546
LJ           3.70655         4.79275        -5.91474
LJ           1.21757         3.94511        -3.17803
LJ           4.70896        -1.48254         5.84121
LJ          -4.82672        -1.38116         2.06715
LJ            6.4292        -4.91533         5.94758
LJ           -3.7385        0.769088         4.83614
LJ           1.26988        0.553544         5.30597
LJ           3.03849         3.25163         4.78183
LJ          -3.62275         6.17662        -1.58874
LJ         0.0758852         -4.0596         3.91126
LJ          -1.62627         1.56077         5.14559
LJ          -1.99382           4.924          1.9424
LJ           -5.3614         1.65849         -3.7179
LJ          -2.91296        -3.98299        -2.00147
LJ           4.11728         5.55531        -2.35432
LJ          -6.38357         1.99435          5.3729
LJ           5.46532         1.87011         1.39757
LJ           6.25224         5.25648        0.840636
LJ           4.88336         2.76532         5.04686
LJ           3.42271         3.25531          2.9583
LJ          0.926482        -4.37999       -0.195526
LJ          -4.03701        -5.23799        -0.48112
LJ          -1.39891       -0.397177         -3.5746
LJ          -6.35866         2.96043         3.52756
LJ          -6.01734        -1.19579         4.36955
LJ           5.45882         3.50063         -4.4188
LJ          -1.84985        0.446922        -1.50218
LJ          -4.87364        -5.63372        -6.04983
LJ          -3.73023        -2.64725        -5.05727
LJ          0.674257       -0.252267         4.56583
LJ          -4.48512         2.78937         1.33212
LJ          -2.85683        -4.81113        0.456915
LJ           4.01681        -2.90437        0.244023
LJ          -5.88318         3.30071        -1.92878
LJ           6.25287         4.18057         3.91225
LJ          -1.21266        -4.70336        -2.29269
LJ          -3.13875         2.66341        -4.07478
LJ          0.982462         4.81346        -6.07275
LJ          -5.17266          2.6509         4.77688
LJ           4.31076        -5.29158         3.63659
LJ           -1.0228        -5.34219        -5.73191
LJ           4.58228         4.79688          2.3896
LJ          -3.67544         5.38958         0.16884
LJ           4.32554         4.98495         2.43157
LJ          -2.72743       -0.530309        -2.28551
LJ          -3.45673        -1.00908        -5.09544
LJ          -2.14176          4.4673        -3.85682
LJ          -1.34628         4.61884          1.7997
LJ          -1.39867         6.45788         5.52473
LJ          -4.40446        -4.04452        -2.85208
LJ          -5.76134         1.64073        0.294081
LJ         -0.609623         2.97356        0.567882
LJ            3.5096         5.34157        -3.86686
LJ         0.0709856        -5.88935       -0.252962
LJ          -3.59593         2.87566         4.04287
LJ          -2.98984        -2.52972         -3.4288
LJ          -1.42468         -6.1428         4.71209
LJ           3.09992         2.22641         5.33059
LJ           5.23261         3.37538         0.97105
LJ          -4.76596        -3.96637         3.09195
LJ           6.15888        -3.31367         0.99469
LJ          0.325569          1.5601        -5.36154
LJ          -2.16432         4.77486         4.65658
LJ          0.251254         3.34139         2.32067
LJ          -3.43896       -0.209428       -0.691315
LJ          -2.35945        0.754634        -2.60265
LJ         -0.458578         5.72855       -0.308609
LJ            -2.338         1.03147        -3.64904
LJ          -2.73166        -3.96517         1.61747
LJ          -4.39788       -0.482046         3.38538
LJ        0.00216082         3.51263          6.3893
LJ       -0.00918817        -2.83998        -2.38715
LJ           4.62544        0.620976        0.683237
LJ           4.19076         2.58055         5.15397
LJ           2.35116         1.51976         1.50623
LJ           2.34945        -2.91231         4.77311
LJ           1.42185         3.26692         5.38237
LJ           1.90231         3.97307         5.89065
LJ          -3.41007         1.48612         -4.9991
LJ             1.048        -4.64295        -4.07387
LJ          -4.56406         3.05603        -1.92478
LJ          -3.51646        -1.07763         2.60138
LJ           2.92336        -4.20312         1.08154
LJ           5.05044       -0.346531       -0.826609
LJ           2.69736         5.65127        -6.28017
LJ           4.37562        -3.67257       -0.207614
LJ          -4.82123         4.80473         4.54549
LJ          -4.74443         6.41562         4.58003
LJ           3.98411      -0.0800673        -1.63667
