108
#Comment!
LJ          -5.53071        -1.23986         1.89859
LJ          -4.40144         1.57185         2.86559
LJ           6.29908         4.01002        -5.53579
LJ          0.746967         -2.6505        -6.46142
LJ           -2.5191       -0.858215        -4.74416
LJ            2.4938         2.23958           5.005
LJ           2.10733         2.51775         3.78675
LJ           -5.4285         4.25978        -6.38089
LJ          -5.56009         4.45261         6.20671
LJ           5.24605         0.49057         2.14808
LJ           5.21442        -4.76932         4.96394
LJ         -0.171364       -0.631285         -4.4588
LJ          0.411688         2.74668         3.95332
LJ          -2.37385        -2.63865         6.07912
LJ           4.72927        -2.32686         1.04633
LJ           3.83837          1.7884        0.911828
LJ           2.70677         3.85072         3.59346
LJ          -4.31336         2.46825        -6.09979
LJ           1.34463         5.08904          4.2551
LJ           3.83275        -4.09965        -1.59576
LJ          0.555251       -0.367242         4.93083
LJ          -1.15783        -2.89997        -2.71892
LJ           2.67406        -2.59281         1.98616
LJ           2.96216         4.70905       -0.153573
LJ            3.6455         5.82704         3.68652
LJ           2.10437        -2.22707         3.75994
LJ           5.26827        -2.84349         2.08467
LJ          -4.25122         1.78007        -2.29889
LJ          -2.23379        -3.38317       -0.574139
LJ          -4.11147        0.968176         6.13536
LJ          -3.14873         4.89182       -0.776982
LJ         -0.796894        -5.87606       -0.401017
LJ          -4.64824         5.08813         -3.5246
LJ          -2.94429        -5.88035         1.19426
LJ           2.80691         1.16596        -2.35566
LJ           -4.5636         4.74457        -6.30197
LJ           4.92623        -4.29454           2.662
LJ           4.64422          3.4279          1.6421
LJ          -1.19706        -1.96705        -6.15765
LJ         -0.637582         6.12847        -4.56575
LJ           2.32803         4.90436         2.90395
LJ           0.73119         5.83544         1.57128
LJ           -3.0203         6.26686        -3.70102
LJ           4.14802       -0.627967         3.20148
LJ          -2.64645         5.25077         4.18498
LJ         -0.854361        -4.09306         -3.5805
LJ           4.83931        -4.49541         4.27799
LJ           3.13877        -0.93018         6.34104
LJ         -0.616477         -4.7022        -2.58235
LJ           3.34063        -2.40963         6.40262
LJ         -0.900544         4.57231        0.678468
LJ           1.60614         -4.6942         -1.1543
LJ          -6.23182       -0.317957        -2.90987
LJ           4.76758         2.76937        -1.64191
LJ          -4.66641         -6.3241        -6.24825
LJ          -2.91061         1.60107        -4.63278
LJ          -1.40098         -5.0951        -5.66849
LJ           5.40704         6.38737         1.21783
LJ           5.37264         -4.0456        -2.47841
LJ          -3.48931          -6.042        -3.05617
LJ          -1.18311         4.97919        -4.67533
LJ           3.08944         2.56319         2.36679
LJ          -2.60175         4.51693         2.24083
LJ          -6.41626        -3.75036        -6.37065
LJ           4.93852        -3.97951        -6.02997
LJ           1.21347         2.05973        -5.18775
LJ           4.63957        0.339289        -5.79948
LJ           5.37076        -4.34266         3.74657
LJ          -1.45706        -0.76755        -4.62317
LJ           2.48521      -0.0746917        -4.74471
LJ          0.167989        -1.64454         -3.4645
LJ           1.42174         5.68346        -5.01577
LJ            3.4379         -2.4198         3.45051
LJ          0.463596        -0.78748         2.66554
LJ          -4.81014         -1.3184       -0.673346
LJ          0.274098        -4.32866        -3.69342
LJ            3.5733         1.87519         6.04386
LJ            1.7961        -4.39004        -3.88077
LJ          -5.71865       -0.886391        -4.08877
LJ           1.55675        0.249979        -2.43201
LJ           2.82565         6.23517        -4.26087
LJ           1.36091         5.61389        -5.53694
LJ           3.29481         4.92133        -5.07685
LJ           3.68784         4.33984         3.83999
LJ           5.69398        -6.10065       -0.775267
LJ         -0.960096         5.73309         4.89264
LJ         -0.565148         4.38634        0.382894
LJ           3.57899        -4.57268         4.64849
LJ          -5.37036       -0.214362        -5.58283
LJ           6.41633       -0.783542        -2.51161
LJ         -0.401712        -6.16548         -6.2462
LJ          -5.24953        -6.27095         1.03638
LJ          -1.91054        -1.32547        -5.47181
LJ       -0.00688605         1.85891        -5.28872
LJ           4.47607        -2.83233         -4.7709
LJ          -4.36554         3.68811         5.47995
LJ          -3.09711        -1.40004        -2.53695
LJ            4.0316         2.20957         2.41296
LJ          -0.25136        -2.09592         2.99118
LJ         -0.496716        -3.20405        -2.89103
LJ           2.89792         2.22158         1.03791
LJ           -2.6864         5.80039         1.75715
LJ          -3.02679         3.40336         4.52505
LJ          -5.50654        -4.99449        -1.14363
LJ           -4.3982         3.28342         1.15237
LJ          -3.79269          3.8159         4.95359
LJ          -4.11549        -2.05856        -4.63287
LJ          -3.36127         2.36047        -5.49878
