108
#Comment!
LJ           3.47056        -4.73439         1.70716
LJ           4.74723         6.18828        -3.32963
LJ           2.14841         5.81396         2.79031
LJ           1.42127         3.66745          5.4464
LJ          -3.48921         1.15663        0.785351
LJ           2.68597        0.806783         4.98488
LJ         -0.707827        0.418242         -2.3426
LJ          0.139067          6.3996        -1.23237
LJ           5.60126         5.72111        0.306031
LJ           1.22853         1.88623          2.3394
LJ          -3.94844         5.00963       -0.972324
LJ           3.01499        -4.35605          6.0403
LJ            1.1586        -6.32518       -0.226243
LJ          -5.66165       -0.588096        0.291992
LJ         -0.564949        0.129138         2.86266
LJ         -0.460926        0.407095        -1.65749
LJ           1.95701        0.775589         2.83585
LJ           4.51063        -3.13746         1.69087
LJ             2.672        -1.34756         -6.0801
LJ          -4.62627        -2.22447         1.70116
LJ         -0.370035         4.62165         2.36953
LJ           3.70388         3.09839        -1.31368
LJ           5.79745         -1.7677        -2.77965
LJ           2.40599         4.82686        -4.93629
LJ          -5.31339        -3.45822         1.97955
LJ           5.28771         5.20218         6.09236
LJ           2.31387         6.40641          2.7064
LJ           1.04665        -3.08214        -1.33701
LJ           4.32403         5.04053        0.116227
LJ          -6.04946         2.41589         1.92915
LJ          0.702097        -2.37651         -5.8853
LJ           5.54831          2.5271         3.25397
LJ          -1.87334        -5.02914        -2.20146
LJ            4.9206        -5.50531        -3.83954
LJ          -4.38911        -3.47912        -1.89269
LJ          -2.70745         2.79757        -4.66881
LJ           2.35966        -3.62332        -1.19835
LJ          -3.07329           4.419        -2.61061
LJ          -5.89638         5.69802          -5.998
LJ           1.57219        -2.50455        -1.96043
LJ          -5.70433         6.18014         3.01893
LJ         -0.279573         1.74819         1.14149
LJ           5.68209         4.68105         -6.2914
LJ          -2.24734        -1.52687         1.79131
LJ          -4.90569        -2.48028       -0.941059
LJ          -6.40197       -0.582659          2.6892
LJ           2.12015         -6.4481        -1.99451
LJ          -5.15573          2.0929         4.24091
LJ          0.450748         2.26622        -3.90365
LJ          -4.72756        -5.20611        -5.60903
LJ         -0.931316         2.60855         2.28655
LJ          -2.99956         2.76121        -2.72765
LJ          -3.55266       -0.717552        -5.65429
LJ         -0.375922       -0.621571        -4.45312
LJ         -0.521219       -0.339604        0.365444
LJ           -5.3146          2.9969       -0.595424
LJ          -1.95374        -4.98778        0.483897
LJ           1.17833        0.202942        0.649457
LJ          -6.27135          3.3346         1.71557
LJ          -6.39396         -5.3107        -2.79304
LJ           4.95055          2.0796         1.84182
LJ            4.6446        -1.05164          3.3592
LJ           4.95315        0.462095         4.14906
LJ          -2.43622        -4.88558         1.86506
LJ          -5.29191         2.65906         5.36162
LJ           3.10283         2.79508         4.39275
LJ           5.31529        -6.06669       -0.727411
LJ         -0.728387        -6.11385       -0.418705
LJ          -1.98882       -0.176858         6.21356
LJ           6.45468        -1.12548        -1.77495
LJ           2.84203        -4.06902         5.42608
LJ           4.23369        -1.54904       -0.853873
LJ           5.98926         5.98609        -1.41317
LJ           -4.5615        -2.33854      -0.0758506
LJ           2.03504         5.07807        -5.89557
LJ         0.0560767         5.99685         3.85135
LJ         -0.961509        -4.24994        -6.06354
LJ          -2.21067        -5.79829       -0.651673
LJ          0.425443         6.29148         2.59894
LJ          -1.13604        -4.95209        -3.72342
LJ         0.0516147        -4.55438        -5.80263
LJ           5.60698         3.99189        -1.49708
LJ           3.96106         3.29689         5.72167
LJ           4.81894         4.79165         4.34099
LJ          -6.12315         1.18631         4.46336
LJ        0.00284474        0.277081         -5.9594
LJ          0.794152         2.94076        -6.43669
LJ          -5.25371        -1.92313        -4.27255
LJ           -6.0856         4.97796        -5.53454
LJ          -0.19773         3.29085        -4.35872
LJ          -1.30323         4.32283         1.64736
LJ           3.08267         2.28016        0.394338
LJ           2.40078        -2.89821         -3.3131
LJ          -2.76734         6.26059        -6.37955
LJ          -4.39861         6.07209         2.66718
LJ           -2.2445        -6.33993          5.3981
LJ           1.89758        -5.91268        -5.26932
LJ          -6.06234          -1.003       0.0326795
LJ          -3.62723        -3.11009         1.34266
LJ          -2.93248         3.42314         6.33036
LJ          -3.82836          4.3604        -5.14425
LJ          -5.75938         5.08367        -4.69041
LJ          -4.93294         3.71685        0.924845
LJ          -3.87946          4.9645         2.68256
LJ          -5.89581        -2.96686         3.82425
LJ         0.0502521        -4.51972        -3.05507
LJ          -5.67761        -4.48974         6.43977
LJ          0.726943         -1.5234        -4.20315
