108
#Comment!
LJ           6.03255        -5.12597        -2.03311
LJ           1.33461        0.544464         2.06749
LJ          -5.70118        -5.74345         4.28252
LJ           -3.7583        -2.19932        -5.20944
LJ           6.42232        -6.13775         3.21747
LJ          0.164263         5.67368         1.31367
LJ          -3.04862       -0.226884        0.298574
LJ          0.847761        -3.26966        -1.11203
LJ           1.81779        -2.91628        -2.66171
LJ        -0.0796035          5.6977        -5.49442
LJ         -0.313759        -2.22845        -4.75387
LJ          -6.44449        -2.10635        -3.60025
LJ           4.88714        0.785227         3.20371
LJ           2.00994        -1.62691       -0.394255
LJ          -4.28263        -3.20269         3.81913
LJ          -2.37685        -3.66712       -0.213006
LJ          -6.32376        -4.03386        -3.35543
LJ         -0.811615         5.52252         3.74142
LJ          -2.39892        0.973312       0.0566673
LJ          -4.31143         1.30305       -0.874737
LJ           2.40248         3.27811         2.05197
LJ           -4.3938        -2.23294        -2.85974
LJ           4.07845        -3.51344        -4.25743
LJ           4.82656        -2.96262         6.33015
LJ           -4.8598       -0.243194        -4.52331
LJ           5.39575         0.95665       -0.663566
LJ            4.0044        -4.97922         2.35463
LJ           5.83164         2.69906         -3.6286
LJ          -4.25175        -2.42387         4.60191
LJ         -0.419621          5.8293        -5.04728
LJ          -2.49967         2.86139         1.96724
LJ           3.77213         5.23503        -6.14006
LJ           3.28269         6.30988         3.84408
LJ          -5.01883       -0.151158        -4.69643
LJ           2.72726         1.20929          -5.325
LJ          0.641016         -5.8534        -1.78816
LJ           2.32611        -5.61987        0.531079
LJ          -5.22624        -2.51803        -1.70991
LJ            1.8065        -4.96322         5.55049
LJ            4.7835        -2.86359         2.23485
LJ          0.601599        -6.06831        -1.52741
LJ          -5.00742         -4.5874         3.39472
LJ          -2.34611         4.39324       -0.586506
LJ           0.12833        -4.49607         2.81736
LJ           1.95541          3.5851        -2.45328
LJ           2.42117        -3.67392         1.08069
LJ           4.15498        -2.43396          2.6989
LJ          -3.02293         1.62425        -1.03408
LJ         -0.476711        -4.18754         3.31352
LJ          -3.87718         3.17411         4.72135
LJ            1.3701        -1.29427        -4.28751
LJ           5.45119        -1.78149        -1.98764
LJ          -3.77416        -4.25663          2.7518
LJ           2.37704        -1.32488         4.70679
LJ          -2.73933        -4.87015         3.50374
LJ           3.93551       -0.198355        -2.89635
LJ          -4.07417         6.22677       -0.531235
LJ          -1.72932         1.42917        -2.60053
LJ           5.93575        -1.84095         6.43551
LJ         -0.917689         2.14049         4.28736
LJ          -4.02683        -2.99076          6.4215
LJ          -6.37374        -5.30314         -5.6981
LJ           -1.9599        -4.67479         4.43827
LJ           0.87553          -4.255         6.12737
LJ             2.716        -2.93333        -6.36876
LJ           4.65193       -0.538647        -2.48911
LJ          -2.07713        -1.91077            4.62
LJ          -4.26126        -5.00622      -0.0507378
LJ          -3.36773         0.36923        0.469507
LJ          -3.42002         -2.9748        -4.00416
LJ          -3.59999         3.68131        -2.53453
LJ         -0.817297       -0.914291        -6.01268
LJ          -6.19572        0.632534       -0.964222
LJ          -1.49126        -2.23467         3.18151
LJ          -1.45375         5.69001        -1.99383
LJ           5.46092          3.4136         3.01377
LJ          -5.73918        -5.75138        -1.75098
LJ           1.24537        0.894561        -5.96053
LJ           0.98216         5.92959         5.61869
LJ          -1.82812         2.28582        -3.53877
LJ           4.59791        -1.26676       -0.474543
LJ           3.31349        0.549685         1.88025
LJ         0.0419266         3.93501        -1.00224
LJ            1.6402         0.55453        -5.97411
LJ         -0.274872         5.70692         3.99605
LJ           1.91972          5.6519         4.80073
LJ           4.18578         1.42837         4.34589
LJ           1.69708        -5.25293         6.03447
LJ           4.08726        -3.19302        -4.75837
LJ           -3.1336         4.85866        0.296935
LJ          -6.10162         -5.2395        0.830217
LJ          -2.03034         1.20647        0.305477
LJ           3.36815        -2.05888         3.19636
LJ           4.33113         4.16895         3.00859
LJ          0.375486         2.30545         5.88701
LJ          -4.96075        -1.40103        -2.77098
LJ          -5.42328         1.61854          2.8569
LJ           1.02046        -6.40178        -1.26655
LJ         -0.275997         1.84429         3.51427
LJ           -4.2332       -0.379793         1.25939
LJ         -0.232036        -2.39716         5.04424
LJ           -3.2707        -2.12059         2.53378
LJ           5.57895         3.20405        -3.40873
LJ          -6.03366           4.552        -6.09418
LJ          0.048867        -2.68008         1.30721
LJ          -2.02223         3.70495         2.15529
LJ          0.661406          2.0229        -4.29137
LJ          -2.08027        -2.97847        -2.24318
