108
#Comment!
LJ           4.79361          5.5092         -4.1278
LJ          -4.23215        0.333819        -3.93405
LJ          -3.91358        -1.29943        -0.45483
LJ           1.54953        -6.38932         2.76368
LJ         -0.587705        -1.46223        -3.79931
LJ            4.5106        -6.06377         3.95175
LJ         -0.999799        -2.57107        0.938554
LJ         -0.110917       -0.645621        -3.32295
LJ          -6.03886        -2.37564        -5.91765
LJ           1.54723        -2.92656        -4.04905
LJ           2.82352         6.15334        -5.84436
LJ           4.63606        -5.11344        -1.65072
LJ          -5.30564       -0.684032       -0.449893
LJ         -0.727002         3.86551        -4.08455
LJ          -1.37117         1.90601        -1.49599
LJ          -4.09442         5.28435        0.106698
LJ           1.09144        -1.56421        -3.99435
LJ          0.380406        -1.30226        -5.84077
LJ           -1.9803       -0.654082        -2.06362
LJ           2.20684       0.0486068       -0.641129
LJ          0.385491        -3.36408        -4.27142
LJ           1.82937        -1.87518        -5.90785
LJ           3.71184         2.04837         2.05651
LJ          -6.46243        0.174226         2.45056
LJ          -6.43514       -0.670057        -6.11678
LJ          -4.41981       -0.754429        -5.57154
LJ          -4.88876        0.232638        -5.93286
LJ          -1.75637         2.70023        -5.87735
LJ           6.28393          1.6422         5.57374
LJ           6.31136         3.52725         4.21354
LJ         -0.959091         3.43182        -3.05618
LJ           1.84358        -1.99492        -4.69991
LJ           4.09914        0.154318        -4.69182
LJ        -0.0823115         3.32506        -5.04986
LJ          0.967828        -4.78283        -4.28012
LJ           3.48836        0.442504         -2.1466
LJ          -1.81708         5.59397         2.90941
LJ         -0.107924        -1.63279       -0.376135
LJ          -2.07685         4.51001         1.13383
LJ          -3.17415       -0.208394       -0.071919
LJ           1.54039        -2.06949       -0.682075
LJ          -3.50037        -1.93704         -4.6556
LJ          -5.27159        -5.75158         1.08197
LJ         -0.660383         -3.2891       -0.031227
LJ          0.103535        -2.54537        -1.17655
LJ          -5.52701         1.06967         1.77181
LJ           2.51322       -0.641711        -2.29689
LJ           -2.3568        -2.32067        0.900058
LJ          -6.00616        -2.36084        -3.74469
LJ          -5.47911        0.296366       -0.904732
LJ          -6.44601         2.05545         1.87728
LJ           4.54474         1.48565         3.26151
LJ           2.61442         4.16834        -6.05768
LJ          -3.44952         3.28355        -0.32114
LJ          -0.64707         2.70571        -2.23446
LJ         -0.398342        -2.65458         4.59163
LJ          -2.05559         -1.5175         6.04673
LJ           5.07778         1.09483        -2.81394
LJ          -3.09264         -3.6004        0.468878
LJ          -3.97217       -0.394712       -0.998978
LJ           -4.4199         5.43068         3.91413
LJ          -2.16945         3.94787        -4.80138
LJ            3.3701        -5.43486       -0.551342
LJ           -4.4254        0.470143       -0.609853
LJ           -3.3732         2.13264        0.735803
LJ           0.10209         4.94418         1.53627
LJ          -2.52291        -5.40897        -1.00939
LJ           1.73653        0.738173        0.551193
LJ           2.48679        -1.20964        0.317802
LJ           1.29134         4.73638         1.89979
LJ         -0.875847         0.67589         1.52362
LJ           2.49435        -5.00007       -0.202251
LJ         -0.916638        -1.45661        0.442235
LJ          -1.41863       -0.664238         1.36963
LJ          -3.94951         2.20563         4.04095
LJ          -4.19249        -5.95146        0.381249
LJ           5.49425        -6.04623         6.19512
LJ           -1.9447        -3.31351        0.941128
LJ           1.13044         -4.1303         5.54496
LJ          0.929481        -3.18942        0.811864
LJ          0.544601         4.30757         3.57461
LJ           3.85501       -0.974715        -2.24542
LJ           1.92233        -3.14202       -0.840019
LJ          0.682373        -3.35689          2.0503
LJ          -4.95683        -4.00032         -1.4192
LJ           -4.4232         1.26715        0.647474
LJ         0.0685037         1.02689        0.851248
LJ          -1.61976        -1.02333       -0.945243
LJ          -6.28489      0.00104545       -0.405095
LJ         -0.287702        -1.36137         4.06371
LJ         -0.543474        -2.11619         2.93863
LJ           4.79238       -0.779583        -4.22834
LJ          0.842342        0.121783        -1.22369
LJ           3.19257          2.0675        -1.69532
LJ           4.45559         3.19446        0.591768
LJ           2.80056       -0.288415        0.735392
LJ          -5.11212       0.0430107        0.285088
LJ          -3.20309          2.0299       -0.419963
LJ         0.0631964        -2.42825        -4.23345
LJ          -3.70902         2.91645        -1.34218
LJ          -1.23277        0.412505         2.59702
LJ           2.00375        -6.04847        0.132991
LJ          0.488685       -0.702244         3.85901
LJ         -0.171066        0.459502         2.33031
LJ           3.76798        0.207056         1.42612
LJ           2.74833        0.895603         1.92327
LJ           3.09283         1.13342        -3.12262
LJ           3.70306        0.719479         2.45349
