108
#Comment!
LJ         0.0946469        0.195232        -3.39413
LJ          -6.41529        0.217186         -5.7534
LJ           6.01377        -0.24094        0.160183
LJ           4.20178         4.88556        -4.17558
LJ           4.82042           1.633        -1.86325
LJ           6.43296         1.63301         1.04574
LJ          -1.10917        -1.45089         1.24588
LJ           2.14859       -0.649751        -3.83845
LJ          -4.08899         6.30204         4.53408
LJ          -2.51624        -4.10308        -4.89164
LJ           1.17352         3.28654        -5.64007
LJ            -4.834         5.58785        -1.29864
LJ           3.55122        -2.68741        0.102365
LJ         -0.109607           -5.77        -5.46045
LJ         -0.639918         5.06043        -3.57818
LJ          -3.81552         1.03421         2.83602
LJ           6.44599        -1.35523        -4.78478
LJ         0.0951046        -1.67503          5.4236
LJ          -2.83659        -1.02677        -2.78962
LJ           5.23431         -1.4676         2.43198
LJ          -1.32977        -3.92756        -5.17531
LJ           2.28822        -5.19428         3.51586
LJ           4.99453         2.96403         3.14179
LJ          -2.09681         4.96124         3.08443
LJ          -5.66703        0.715161         3.06458
LJ          -5.58678         -2.4894         3.80925
LJ           6.32306        -3.34927         3.45965
LJ          -4.00458         2.17104         4.73355
LJ            1.6547         2.12782         3.48277
LJ          0.787721        -4.35392         0.43935
LJ          0.905918         5.02266        -4.14418
LJ           3.05096        -4.76864         4.53507
LJ           5.29033         3.43069         5.39975
LJ          0.149687         -5.9455        -4.38741
LJ           5.96446        0.443667         2.94985
LJ           2.45393       -0.905902        0.150399
LJ          -2.26774        -5.50635        -6.40393
LJ         -0.310948       -0.944548         1.69839
LJ          -2.39385       -0.655714         1.53535
LJ          -5.59221         2.34512       -0.261151
LJ           3.56636        -1.17545        -1.04078
LJ           5.60702        -3.00152         5.94708
LJ          -4.09896         2.11165        -1.12504
LJ          -1.85759        -2.26538         2.09617
LJ           0.63013        -1.89431         1.82992
LJ          -4.60826         1.91469          3.9505
LJ           5.49327        -1.10213        -2.55606
LJ          -3.20305        -2.56944        -3.53101
LJ           3.92908        -4.20568        -5.69504
LJ           4.56832       0.0273013         1.05362
LJ          -4.04796       -0.607513          2.2058
LJ         -0.131831         2.55631        -4.88548
LJ           5.99508        -2.39518         2.41218
LJ           4.29502         1.92402        0.318195
LJ         -0.411837         4.52932        -2.34854
LJ          -1.53915        -3.69861         6.24966
LJ          -3.80469         1.25828        -2.66596
LJ          -5.53075         2.28832        -3.82094
LJ          -4.93649        -6.25454         3.27636
LJ            3.9185        -1.15746      -0.0311272
LJ          -4.40185        -3.56963         5.40659
LJ          -2.28169         5.29729         5.38614
LJ           5.08158       0.0360633        -3.80293
LJ          -5.27026         1.94666        0.664344
LJ           -5.0987         4.06279       -0.222154
LJ            2.8623        -5.38887         6.37753
LJ          -4.32773          1.1939       -0.184203
LJ           2.83033         2.51829          3.3652
LJ           3.18664        -2.08954        -1.73126
LJ           3.88011         2.72947         2.35153
LJ          -1.42373        0.659245          2.4744
LJ           1.43026       -0.884803       -0.027223
LJ          -2.20589        -3.11706        -1.09775
LJ          -2.01463        -1.81163        0.892873
LJ           -5.7287         5.12103         4.68552
LJ           5.55329         2.88095          1.2795
LJ         -0.320059        -5.99828        -2.15923
LJ          -1.09153         -2.4888         3.04171
LJ           3.12833         6.07694        -5.27596
LJ          -2.11267        -3.51067         2.75194
LJ          0.235647       -0.869121         4.85632
LJ           3.72606        -3.35915        -2.07543
LJ           1.83013       -0.775724       -0.971242
LJ         -0.730053        -1.62166         2.31691
LJ            5.4916        -5.34994        -3.72288
LJ          -5.97733         1.33428         2.01394
LJ          0.369331         0.81765         2.66436
LJ         -0.416607       -0.551252        -3.19281
LJ           4.50214        -1.92162        -2.30563
LJ          0.301711         -5.7022         5.86752
LJ           4.28701        -6.22694         4.54772
LJ            6.1957        0.275497        -1.29431
LJ           2.73281         3.20763        -2.64836
LJ           3.00769         3.07392       -0.147759
LJ            -6.001         4.08579        -1.30904
LJ           4.00931        -2.44148        -1.10876
LJ          -5.68908        0.566355         1.08694
LJ          -4.34869         5.04126        -2.38299
LJ         -0.609564        -2.88543       -0.376389
LJ          -4.88161         3.51825        -2.06297
LJ         -0.256815         1.29402         1.66835
LJ           2.37335        -1.65129       -0.589924
LJ           2.14859        -0.27663          6.0581
LJ         -0.470084          1.4177        0.584004
LJ           4.39394        0.814678         2.25814
LJ           3.92684         1.91212         1.65555
LJ          -6.23075       -0.418484        -2.79102
LJ           4.42786         1.80711         2.96241
