108
#Comment!
LJ           6.39034        -6.08522        -3.80037
LJ          -3.42618      0.00386914        -3.75535
LJ          -3.23387        -1.86875        -1.12853
LJ          0.801836        -5.88487        0.862444
LJ         -0.164624         -2.4365        -3.33342
LJ           3.27875         -4.5099         5.58153
LJ          -1.69993        -2.45015        0.276448
LJ         -0.382559        -1.14082        -2.89188
LJ           5.50517        -2.23196        -5.17531
LJ          0.965965        -2.40075        -2.85322
LJ           2.88802        -5.69974        -5.68103
LJ           3.37691        -4.42591        -1.57583
LJ          -4.50574       -0.382578       -0.639846
LJ          -1.56749          2.1842        -3.84869
LJ           -1.9909         1.56608        -1.84472
LJ          -3.66966        -5.61091       -0.563021
LJ          0.606334        -1.56382         -3.3663
LJ          0.323291        -1.24923        -4.87393
LJ          -1.32004       -0.582678        -1.88692
LJ           1.46174       -0.493591        -1.55411
LJ          0.809877        -2.82439        -3.99362
LJ             1.911       -0.890414        -4.68261
LJ           3.00225         1.70151         0.50083
LJ           5.13045       -0.451704        0.877357
LJ          -5.14366       -0.167777        -5.29918
LJ          -4.61375        0.242938        -4.23917
LJ          -3.91653        0.694544         -4.9797
LJ          -1.07285         1.67837         -4.8112
LJ          -5.25582         1.31118         6.22835
LJ          -4.80912         2.78711         6.21914
LJ          -1.73886         2.32073        -2.75311
LJ           1.22634       -0.632469        -3.59962
LJ           2.74352        -0.36155         -3.2617
LJ          0.172715         2.45187        -4.42624
LJ          0.275543         5.47697        -3.04415
LJ           2.99559         0.41889        -2.11179
LJ           -1.1286         5.94578         1.57709
LJ         -0.572526        -2.20652        -1.27782
LJ          -2.35269         6.04813        0.980887
LJ          -2.49152      -0.0362298        0.120694
LJ           1.04928        -2.50454       -0.398861
LJ          -2.41831        -1.42246        -3.96347
LJ          -4.46369        -3.51101        0.952497
LJ         -0.115444        -2.83743     -0.00865889
LJ          0.637148        -2.38048        -1.60609
LJ           6.26077        0.352232         1.04323
LJ           2.57614       -0.616287        -1.79805
LJ          -1.48278        -2.41532         1.28309
LJ          -5.03018        -1.72149        -3.16876
LJ          -3.95509        0.564287        -1.31861
LJ          -5.95443         1.95206         1.32714
LJ           6.20737        0.484792         2.18713
LJ           1.58619        -6.38526        -4.92843
LJ          -2.12372         2.89896       -0.609222
LJ         -0.490274         1.60687        -1.42808
LJ          0.104966        -1.64484         2.92008
LJ          -3.61089        -2.01769         2.70316
LJ           4.19066         0.81947        -2.23321
LJ          -2.41511        -2.27376       -0.570053
LJ          -2.15671       -0.403969        -1.02578
LJ          -4.07098         4.20352         2.42025
LJ          -2.07646          3.6373        -3.54625
LJ           5.09966           5.934       -0.444896
LJ          -3.68329         0.12269       0.0397868
LJ          -2.76131         1.20315        0.961558
LJ        -0.0293802          4.0587        0.424962
LJ          -1.72526         5.44789       -0.778171
LJ          0.861242         1.46786        0.357246
LJ           1.33785       -0.566788        0.320151
LJ         -0.247524         5.46654         1.48382
LJ        0.00103466        0.498583         1.71553
LJ           2.08411         5.95357       -0.502093
LJ           -1.1508        -1.50247        0.773214
LJ          -1.73425       -0.824545         1.73831
LJ           -3.3445          1.1711         3.76785
LJ          -3.80663        -4.95294        0.753833
LJ           3.15046        -5.64512         5.49831
LJ           -1.9052        -3.62762        0.817537
LJ          0.748786        -2.71182          4.7104
LJ          0.888642        -2.87963        0.601558
LJ          0.692171         5.99751           2.895
LJ           3.55929        -1.05772        -2.06265
LJ           1.77297        -3.24894        0.127237
LJ           1.25968         -3.4584         1.39468
LJ          -4.15836        -3.60269       -0.614874
LJ          -4.16987         1.08312        -0.25715
LJ         -0.557557         1.13655        0.461692
LJ          -2.02635        -1.18418        0.123291
LJ          -5.12244       -0.314748        0.278261
LJ         -0.649062        -1.00677         3.55375
LJ          -2.26665        -1.89923         2.90904
LJ           3.55397       -0.993048        -6.04354
LJ          0.807613        -1.03653       -0.509501
LJ            3.0128         2.11909        -1.31385
LJ           3.47518         2.77723          1.4856
LJ           2.43987       -0.115718        0.399448
LJ          -4.28122         0.62341        0.749331
LJ          -3.16185         2.05473       0.0431506
LJ         -0.787729        -1.29763        -6.30938
LJ          -2.65359         2.04818        -1.03988
LJ          -1.15909        0.516048         1.86994
LJ           1.22558         5.20307        0.634815
LJ          0.203299        0.565516         3.68364
LJ          0.081047        -0.17954         2.69422
LJ           3.52658         0.70341         1.32107
LJ           2.53361        0.354923         1.68494
LJ           2.09618        0.924853        -5.70258
LJ            3.5966        0.655718         2.93018
