108
#Comment!
LJ           5.00693         5.68658        -4.08381
LJ          -4.12711         0.30128        -3.89275
LJ          -3.83505        -1.39317       -0.575041
LJ           1.47129        -6.35328         2.46981
LJ          -0.54537        -1.58103        -3.73167
LJ           4.34468        -5.84712         4.15296
LJ          -1.03388        -2.55557        0.803031
LJ         -0.189452       -0.704927        -3.27064
LJ          -6.18153        -2.15956        -5.84239
LJ             1.532        -2.91711        -3.85798
LJ           2.87764         6.31408         -5.8873
LJ           4.47564        -5.01214        -1.65377
LJ          -5.19867       -0.614922       -0.454271
LJ         -0.859779         3.68797         -4.0714
LJ          -1.48778         1.82116        -1.52849
LJ          -4.05579         5.63028       0.0652236
LJ          0.841991          -1.654        -3.99744
LJ          0.445902        -1.27344        -5.74908
LJ          -1.89431       -0.633282        -2.07454
LJ            2.1255      0.00169936       -0.758496
LJ          0.405939        -3.29574        -4.25018
LJ           1.79156        -1.73679         -5.7562
LJ           3.62232         2.05622         1.84577
LJ           6.25919       0.0545678         2.24692
LJ          -6.32083       -0.809472        -5.99597
LJ          -4.43025       -0.679562        -5.36136
LJ          -4.75984        0.357555        -5.85047
LJ          -1.67201         2.54703        -5.75588
LJ          -6.46034         1.59262         5.66226
LJ          -6.37381         3.43608         4.47888
LJ          -1.08754          3.2963        -2.98844
LJ           1.83643        -1.77333        -4.59452
LJ           3.93783       0.0622508        -4.43882
LJ       -0.00679153          3.2004         -4.9906
LJ          0.875636        -5.14249        -4.11477
LJ           3.48313        0.429327        -2.13823
LJ          -1.74823         5.64635         2.72743
LJ         -0.159994        -1.72069       -0.495836
LJ          -2.09802         4.71216         1.12191
LJ          -3.06081       -0.180088      -0.0196006
LJ           1.50382        -2.14313       -0.666088
LJ          -3.35062        -1.87661        -4.56203
LJ          -5.14183        -5.49798         1.05313
LJ         -0.622717        -3.22364      -0.0451957
LJ          0.193907        -2.54076         -1.2635
LJ          -5.65214        0.966226         1.68285
LJ           2.46564         -0.6534        -2.25082
LJ          -2.30145         -2.2791         1.10442
LJ          -5.87694        -2.27787        -3.66483
LJ          -5.33965        0.328729        -1.03646
LJ          -6.39532         2.09509          1.8089
LJ           4.77788         1.36521         3.14516
LJ           2.47266         4.47499        -5.90521
LJ          -3.26593         3.22713       -0.359703
LJ         -0.555763         2.56102         -2.1106
LJ         -0.316135        -2.57746         4.38615
LJ          -2.23182        -1.58471         5.59433
LJ           4.94038         1.04803        -2.73019
LJ          -2.96151        -3.45472        0.356341
LJ          -3.70406       -0.432851        -1.03127
LJ           -4.3737         5.26739         3.71532
LJ          -2.16556         3.90831        -4.64297
LJ            3.5285        -5.61891       -0.502667
LJ          -4.28668        0.490194       -0.538001
LJ          -3.34349         1.96976        0.732432
LJ         0.0461387         4.80234         1.35025
LJ          -2.41225        -5.68477       -0.983186
LJ           1.56702        0.850575        0.528353
LJ           2.37011        -1.08919        0.371786
LJ           1.12216         4.83741         1.86246
LJ          -0.71983         0.57122         1.46232
LJ            2.5343        -5.26608       -0.291479
LJ         -0.930419        -1.40506        0.526534
LJ          -1.36893        -0.57506         1.40427
LJ          -3.86834          2.0677         4.00506
LJ          -4.15249        -5.85085        0.400275
LJ           5.14325        -6.01006          6.1801
LJ          -2.02626        -3.44231        0.895124
LJ           1.08174        -3.94406         5.43568
LJ           0.93753        -3.14216        0.767033
LJ          0.564203         4.53098         3.50889
LJ           3.83994       -0.939606        -2.28927
LJ           1.92831        -3.15804       -0.724051
LJ          0.757157        -3.38625         2.01966
LJ          -4.85321         -3.9474        -1.31699
LJ          -4.29519         1.32894         0.56943
LJ        -0.0604699         1.00889        0.854016
LJ           -1.6726        -1.08087       -0.804772
LJ          -6.14884      -0.0420152       -0.292841
LJ         -0.339543        -1.26282         4.00756
LJ         -0.828311        -2.11726         2.85782
LJ           4.64865       -0.832885         -4.4864
LJ          0.793238      -0.0226542        -1.14613
LJ           3.16557         2.08842        -1.64007
LJ           4.32682         3.14283        0.699001
LJ           2.86994       -0.245705         0.79331
LJ          -5.06851       0.0217183        0.377983
LJ          -3.20287         2.05891       -0.314297
LJ         0.0693481        -2.21402        -4.37804
LJ          -3.59363          2.8189        -1.33068
LJ          -1.21249        0.468246         2.55255
LJ           1.86261        -6.25463        0.262537
LJ          0.461048       -0.534777          3.8517
LJ         -0.193466        0.393431         2.37362
LJ           3.66113        0.197265         1.38661
LJ           2.71642         0.81387         1.93048
LJ           2.94487         1.12582        -3.47703
LJ           3.62254        0.667415         2.40732
