108
#Comment!
LJ           -2.3331         6.28937         5.17322
LJ          -1.41416        -5.25001         3.66665
LJ          -2.42916           5.585        -2.64973
LJ           3.42536        -3.82701        -3.57741
LJ          -3.22751        0.716365        -3.52516
LJ          -3.25255        -3.67903       -0.033783
LJ           1.49899         3.30623         2.77609
LJ          -5.52445        -2.29006         2.18365
LJ          -6.22912        -3.24644         5.49302
LJ          -1.54961        -2.17008         1.08314
LJ           -5.9146          0.8383         5.71774
LJ          -1.07986         2.45207         5.21185
LJ           2.86491        -2.33981         4.00127
LJ           -4.6337        0.685447       -0.449417
LJ          -3.50363        0.311015         4.96921
LJ           4.13783        -5.16447         1.85378
LJ          0.850048         2.13385        -2.30128
LJ           2.04425         1.66141         5.79665
LJ           3.33246       -0.506244         5.82717
LJ          -2.91086         6.10881         1.71044
LJ             1.474        0.645814          6.1799
LJ          -2.15079        -4.87925         5.32815
LJ           4.43419        -2.61159        -1.33461
LJ          -0.34245        -3.33121          4.2833
LJ           3.84055         5.60974         -2.0668
LJ          -1.46264        -3.83287         5.45237
LJ           2.74258        -5.68885         6.21613
LJ           2.27305         1.34523        -6.04519
LJ           -5.7293         3.58523         4.99476
LJ         -0.426389         -2.6315         4.32729
LJ           1.97068         1.07224         0.39682
LJ           -5.0338         0.10565         2.30267
LJ          -4.44224         5.79844         1.63207
LJ           4.26375         1.91415        -6.27503
LJ           1.61551       -0.489905         4.69495
LJ           1.12261        -3.85474         -4.5555
LJ           2.87483        -3.36203         4.41233
LJ           -1.4928        -4.66303        -5.21106
LJ          -5.28802        -6.45083         4.11132
LJ           2.32299         -2.9598         2.02411
LJ           3.67648        -6.05421        -4.74554
LJ          -2.64555         6.20617         3.30909
LJ          -5.93835        -6.00241        -3.68849
LJ          -3.23532        0.514824        0.264372
LJ          -2.72057         4.77928        -1.20481
LJ          -5.74788         5.07315         1.95099
LJ             1.817        -3.16215         4.72523
LJ          -3.43659          4.2633        -1.90428
LJ          -5.91772         3.77113         6.33352
LJ         -0.430015        -4.25409        -5.44838
LJ            -1.193        -4.22365        -5.20604
LJ            2.9414         3.77144        0.744442
LJ           2.34105         2.68194         -4.3679
LJ           2.61055         1.94506        -1.59327
LJ           5.16455         4.14863        -5.82708
LJ           -6.2815         5.35359        -5.24903
LJ          -1.38191         2.24491         -1.2766
LJ           1.27767         -3.5088        -2.66433
LJ          -5.06617        -2.64514         2.98716
LJ            3.9674        -4.90452         1.51104
LJ           5.19558        -5.91478         1.54051
LJ          -2.76385        -4.10734         3.52315
LJ          -0.36782         6.26673        -1.96501
LJ            2.2981       -0.502164        -5.78247
LJ          -4.73185       -0.879467        0.608323
LJ          -1.67812         -4.6543         1.96187
LJ           5.61201        -3.60247         4.30988
LJ           1.17555         4.33207         3.29069
LJ           5.05514         1.88523        0.325958
LJ            2.6339         5.73058         5.81176
LJ           5.76575         0.24406        -4.64908
LJ           1.46931         5.81868        -2.23648
LJ         0.0820472        -6.18505         1.19756
LJ            1.5131        -4.31766         3.56567
LJ           2.58424         5.56942         5.30405
LJ            6.2615        0.755413        -3.65758
LJ           2.04067        -3.47687       -0.427539
LJ           5.16967        -6.43925        -4.63728
LJ           4.16948        0.706856         4.38528
LJ          -4.44261         2.95575       -0.389364
LJ           4.96754         2.05987         2.12649
LJ           1.10503          2.8493       -0.336722
LJ           1.09523         6.00921        -3.00896
LJ          -3.27799        0.414141         6.27257
LJ          -1.14042        -2.65895         4.71823
LJ           4.01239         5.82285         5.43375
LJ           2.81235         6.39077        -2.66887
LJ           -1.6273          4.9075          3.0046
LJ          -3.59063         2.67956         1.68109
LJ           5.12877        -4.70808        -6.08539
LJ           1.51538        -2.16907        -5.55992
LJ          -6.28197        -2.39251          4.0809
LJ           4.92471      -0.0405622        -3.19734
LJ            5.3942       -0.638064        -3.39397
LJ           6.43905         4.57686         2.27654
LJ          -4.80431         2.28256          3.2446
LJ          -6.16237          1.3341        -4.24579
LJ          -1.41522        0.363102        -4.46622
LJ          -6.01872         3.74637         4.73304
LJ           5.59051        -2.49731        -4.02867
LJ           -4.3198        -1.63219         3.05014
LJ         -0.856687        -1.70038       -0.277655
LJ           5.58229       -0.148442        0.396433
LJ         -0.910972         3.69037       -0.861949
LJ           3.05683        0.104601        -3.30968
LJ           3.29837         3.84067         4.57918
LJ           -1.4656        -6.17861        -5.42163
LJ         -0.622863         3.69625        0.393872
