108
#Comment!
LJ           2.19127         3.24638        -4.57679
LJ           -5.5447        0.682019        -4.48991
LJ          -6.26976       -0.173929        0.334676
LJ           2.42471         6.09105         6.29654
LJ           2.00502       -0.849819        -2.58922
LJ          -6.46115         4.14014         1.49332
LJ          -0.24865        -2.09173        0.815615
LJ           1.00664       -0.157951        -3.76623
LJ          -4.29806         -4.8197         6.17494
LJ         -0.337516        -4.17105        -5.05933
LJ           2.19116         4.32563        -5.41965
LJ           6.43267        -6.30837        -1.52473
LJ            5.8833        -1.25345       -0.104475
LJ          0.668622         5.62079        -4.83911
LJ        -0.0702815         3.81459        -2.28126
LJ          -4.62545         2.93733         1.47289
LJ           3.79812        -1.37051        -4.42098
LJ         -0.175532        -1.86329         6.10291
LJ          -2.95174       -0.858615        -1.99524
LJ           3.56501       -0.462097        0.783774
LJ         -0.580882        -3.13868        -4.09681
LJ           2.01405         -3.4654         5.16045
LJ           4.32565          2.5853         2.72675
LJ          -3.86243         2.44968         3.70343
LJ          -6.29656        0.374837         4.59102
LJ          -5.18615        -1.33639         5.23308
LJ          -6.03109        -1.75706         5.79829
LJ          -2.76341         3.95814         5.13937
LJ           3.94837         2.13223         4.59468
LJ           3.45145         4.65183         1.03719
LJ          0.287423         4.90579        -3.93743
LJ           2.34749        -3.52768        -6.33327
LJ           5.30682         1.52202         6.32641
LJ         -0.940421         5.18774        -4.99543
LJ           4.38145        -2.48418         5.84079
LJ           3.86879       -0.435473        -0.53876
LJ          -2.61354         5.16952         5.00117
LJ          0.506156        -1.32816        0.763814
LJ           -2.0096         2.01045         1.21945
LJ          -5.01706         0.73565        -1.00036
LJ           2.03679        -1.83737       -0.557059
LJ          -5.45422        -2.46914        -6.05127
LJ          -5.80067         4.22208        0.798409
LJ         -0.916452         -3.1193        0.874099
LJ          0.342927        -2.48318       0.0327523
LJ          -5.02085          1.8998         2.90143
LJ           3.80083       -0.255087        -2.54074
LJ          -2.45479        -2.59567         -1.4238
LJ           5.38834        -3.33365        -4.74815
LJ           5.83629       -0.138094       -0.438454
LJ          -5.81547        0.830795         2.64027
LJ           1.95306          1.9459         5.96512
LJ           4.30251        0.574962         4.79048
LJ          -5.95949           1.673       -0.200649
LJ          -1.42136         3.69443        -2.66546
LJ         -0.906943        -2.71188         5.96388
LJ          -2.27916       -0.199035        -4.04571
LJ          -6.39702         1.40174        -3.77144
LJ          -4.07328        -4.97915         1.90785
LJ           -6.2359       -0.993051       -0.902746
LJ          -4.82245        -5.51922         5.16677
LJ          -2.05753         4.74854        -6.13765
LJ           4.34841        -3.18362        -2.59029
LJ          -4.40171         1.07192         0.41157
LJ          -3.60215         3.37926        0.424158
LJ           1.48905         6.36558         3.93208
LJ          -3.64567        -1.93332        -1.14437
LJ           2.22229         1.57699         1.72781
LJ           3.05462         -2.5969       -0.831245
LJ           2.60963         3.80692         2.33146
LJ          -1.81795         1.08196         2.56635
LJ           1.40046        -1.86313         0.21994
LJ          -1.77988        -2.60838       0.0328999
LJ          -1.53699        -1.70403         1.31714
LJ          -4.93401         3.80403         4.42891
LJ          -5.67182         5.53417        0.774878
LJ          -3.36758         6.44885        -5.41981
LJ           -1.9487        -2.53453         1.90412
LJ           1.74695        -6.35718        -6.08629
LJ         -0.240396        -3.53592         1.64624
LJ          0.343671         1.67289         4.25443
LJ           3.77899        -2.10081        -2.09569
LJ           1.70374        -2.17055        -1.57137
LJ         -0.689176        -2.45294         1.93851
LJ          -6.19887        -4.64973        -2.62345
LJ          -5.94322        0.402699         1.05231
LJ          0.939657        0.819599         1.73509
LJ         -0.860966       -0.618493        -2.10964
LJ           4.86344       -0.479752        -0.68636
LJ        -0.0267426        -3.81271         4.98738
LJ           2.18024        -3.72098         3.70102
LJ           6.21661        0.391011        -1.43336
LJ           1.77852         1.73185         -1.9559
LJ           3.16779         3.84392      -0.0245644
LJ           5.98716         3.76723        -0.64994
LJ           3.79828        -1.49653       -0.134258
LJ          -5.38638        0.863017       0.0244347
LJ          -4.31383         3.24777       -0.936568
LJ         -0.560977        -2.44435        -2.12478
LJ          -4.38237         3.40646        -2.17835
LJ           -1.0393        0.353209         2.09145
LJ           2.18206        -3.07806       -0.329914
LJ           1.37603       -0.788553         4.75386
LJ          -0.39564         1.14024         1.22806
LJ           4.17207        0.527833         1.92162
LJ           3.83436          1.5036         1.64017
LJ           4.59009        0.459317         -2.6917
LJ            4.2783         1.27504         2.68898
