108
#Comment!
LJ           1.18488         1.21427         1.20407
LJ        -0.0687143        -6.20851       -0.651305
LJ          -6.34384         -3.7749        -2.54968
LJ          -2.25009        -2.15762         3.48563
LJ          0.416098        -5.42779         5.67972
LJ           5.45479        -4.95617         1.43835
LJ           4.24611        -5.03903         5.35871
LJ          -0.82387        0.573496       -0.101885
LJ          -6.46051         4.28943         6.30349
LJ           3.17591         4.71856          4.4681
LJ          -5.08126        -4.29965         5.98488
LJ         -0.330205        0.242926         5.21746
LJ          -4.97561        -4.94013       -0.777527
LJ          -3.76073         3.83283         5.52578
LJ           6.14484          5.2445         1.38325
LJ           1.97544        -6.21393        -6.19544
LJ          -5.89367         4.48984        -4.55738
LJ          -3.25698         1.67647        -5.63012
LJ            5.4132       -0.363805         4.20782
LJ         0.0473822        0.218097        -1.63612
LJ          -3.07044        0.633979        -5.32382
LJ           6.35274        -5.07902         3.18658
LJ          0.554474        -2.49777         -2.3954
LJ          -4.03466         6.07149         1.35961
LJ           3.09915        -4.12259         4.17452
LJ           4.00145         6.05121        -4.86348
LJ         -0.984188        -3.37407         -5.5426
LJ           -5.6843         6.03631          4.3659
LJ          -5.58027        -2.01902        -6.31965
LJ            3.1396        0.434428         3.42023
LJ          -5.77243         5.35955        -1.50799
LJ          -2.70505        -2.47993         6.19695
LJ           3.45611         2.31617         6.39469
LJ           3.73449         2.79444         4.25666
LJ           1.28589        -1.30112       -0.785868
LJ          -5.19953         -1.6894       -0.946343
LJ           5.13567        -5.53989         -3.9608
LJ           5.88404        -5.43738        -2.44388
LJ           3.44957        -3.39901        -5.68406
LJ         -0.926239         1.77353        -2.91189
LJ          -2.57715       -0.516463        -5.18321
LJ           5.01297        0.058169         5.30893
LJ          0.282194        -1.94719         3.54556
LJ           2.89962        -2.39128        -6.11614
LJ            5.7189         -6.2959        0.411307
LJ          -2.84455        -6.34786        -4.15747
LJ           3.39429         4.90475        0.904136
LJ           2.78666         4.73197         3.07647
LJ          -5.85978         6.35172        -5.28068
LJ           3.39658         5.02074        -2.44803
LJ           4.04977          2.5381        -1.12357
LJ         -0.672257          6.1403         4.87529
LJ          -3.72143         6.19443         5.00982
LJ          -1.92692         6.40119         5.67783
LJ          -4.96038        0.515772        -1.00086
LJ          0.901698         4.46562         2.43252
LJ          -6.45158       -0.365402         4.28443
LJ          -3.91505        -3.53321         2.72827
LJ           4.01711         1.78239        -3.58959
LJ          0.654867         3.93871         4.73913
LJ         -0.107439        -3.71124        -3.99069
LJ          0.456053         4.75414         5.78837
LJ           5.82826        -2.34309         5.85583
LJ          -4.52365        -4.23023        -2.07681
LJ          0.994348         6.26268         5.48142
LJ          -5.73924         2.79915        0.370561
LJ           4.17978          4.7093         5.12364
LJ          -3.87007         3.20729        -5.76093
LJ          -1.51054         2.66961         -3.6837
LJ          -4.55933         5.17101        -5.61137
LJ          -3.96904         3.70801         1.55609
LJ            6.0809      -0.0213656        -2.15277
LJ          -5.49751        -2.66594        -1.49693
LJ          -1.98541        -6.13914        0.715754
LJ          -4.68305         3.26332         1.15739
LJ           2.85429           5.706         2.36129
LJ          -4.82939         5.08711        -5.01969
LJ            -2.157        -2.53004         4.54188
LJ           2.79607         5.38025        -3.65826
LJ          -5.39332         1.16286         3.35492
LJ           2.61532         5.61954        -5.75889
LJ          -3.24721         5.39973          6.2859
LJ           5.01104         5.70754       -0.382683
LJ           1.13495         4.90194         1.65089
LJ           1.70066         2.88242         4.95906
LJ            6.3871         6.24116        -1.76339
LJ          0.221688        -2.25841        -1.11107
LJ          0.932322         5.59726        -2.82792
LJ            1.4462        0.336331        -1.36788
LJ           5.28774         5.98776        -6.32584
LJ           2.53005        -5.13347         4.11859
LJ           1.49544         3.30014       -0.952423
LJ           1.59182         3.66319        -5.18735
LJ           1.27696        0.797598       -0.388725
LJ           -3.1521         2.43352        -1.00123
LJ          -4.26465        -2.62785         4.81952
LJ           6.06096         2.65345       -0.096047
LJ          0.775412         2.78837         2.93032
LJ          -6.02929       -0.573118         4.91418
LJ          -2.17737         5.10848         5.69286
LJ          -5.02378         2.88755        -2.76499
LJ          -4.46374        -2.90368        -5.85701
LJ           3.00728         5.92771        -5.98909
LJ           -4.7523        -4.91055        -1.62303
LJ          -5.52236        -2.31986        0.434657
LJ           1.20296          3.2771        -4.43453
LJ           -3.8317         2.94192        0.463064
LJ           4.31589         2.65495         6.35029
