108
#Comment!
LJ          -5.56015         1.33497        -4.59947
LJ           3.54899        -6.20668        -1.20695
LJ          -1.96577        -3.40311        -4.77781
LJ          -2.85282         2.57394        -5.22915
LJ           5.00817        -5.69825         3.24727
LJ           3.06025         6.16788         2.62183
LJ            3.6367        -3.24941        -3.47217
LJ          -5.53877        -5.61842        -3.59702
LJ           4.25507         1.03385        -2.14623
LJ          -5.48069        -2.21764         6.33401
LJ          -6.33426         5.94786        0.187585
LJ           -6.4372         3.91201         2.83024
LJ          -3.28469        -3.68102        -2.14664
LJ           2.45103         3.00367         6.21278
LJ           3.87685        -5.89345         -2.2156
LJ          -1.26565          2.8212         -5.5703
LJ            3.5582         4.28825         6.45926
LJ          -2.00024         5.47223        -6.22025
LJ           2.73359          1.4109        0.832181
LJ           4.33342         3.01562         2.17898
LJ          -2.63057        -1.34735        -2.01182
LJ            2.6949         1.64179         2.24688
LJ          -3.13818         4.88591         1.78096
LJ           1.52659         4.83084        -5.86415
LJ            1.8454        -2.43815        -3.52157
LJ          -4.47035        0.360068        0.872593
LJ          -3.16058        -2.54573         3.20413
LJ          -2.35871        -3.55485         6.05114
LJ          -3.29991        -3.75921          2.0651
LJ          -5.79534         4.63819        -6.43921
LJ           -3.6758         -1.8952         4.04229
LJ           4.73109        -2.05857        -5.18587
LJ          -0.44284        0.187844       -0.392023
LJ           1.43968        -6.12414        -5.67102
LJ           1.23696        -6.13881        -4.96008
LJ           -0.6522        -4.12564        -5.77095
LJ          -1.46572        -3.60353         5.38866
LJ          -5.66349         2.40073         3.18053
LJ         -0.620317        -1.71954         6.41207
LJ           5.00257        -4.02168         6.34342
LJ          -3.32047        0.944707         4.51866
LJ           3.30689       -0.550731        0.665748
LJ           1.24943         2.89788        -3.74128
LJ          -2.33976         4.58727        -4.86192
LJ           5.54757        -1.90669         -4.4539
LJ           3.24076        -1.45973        -4.52953
LJ           -1.4769        -2.84812        -4.69174
LJ          -6.03933        0.686893        -5.22936
LJ           4.09409       -0.728901         5.78036
LJ          -3.40115        -2.78202        -4.37348
LJ           4.66516         -1.3289         4.94685
LJ           4.30159         1.15041         6.21875
LJ          -5.51572         3.24544       -0.846462
LJ           2.57697       -0.660746         4.05863
LJ          -5.88361         6.44793         5.06683
LJ           6.14773       -0.881484         6.37341
LJ           3.20425         1.95574          1.4486
LJ           -2.1935         2.40083          1.8525
LJ           5.94289         1.19485         3.27162
LJ         -0.296961        -5.90333       -0.239259
LJ           5.95229         2.92845         6.12252
LJ         -0.682365        -2.49844         1.22484
LJ            4.3964       -0.168781         2.09744
LJ          0.881977         6.19701        -3.09914
LJ          0.311324        -3.66559        0.614867
LJ          -4.04594         2.15881        -3.68305
LJ           1.11394        -6.10155        0.408363
LJ           3.57983        -3.71409         5.15909
LJ          -6.07233        -1.01861         4.91317
LJ          -6.03935        -4.27209         5.06368
LJ          -4.63429          6.1996         2.96894
LJ           1.31527        -4.55534         2.36775
LJ          0.981768        -5.60978        -6.08929
LJ          0.580296        0.675707         -4.0182
LJ          -5.17201       0.0783662        -3.27023
LJ            1.5629        -1.72521         5.00274
LJ           2.47611         -5.6323         4.46801
LJ           6.29934        -3.99225          2.0026
LJ            -1.527         2.77743        -6.18396
LJ          -2.48392        -2.21676         2.26927
LJ           1.28711        -3.67939       -0.208277
LJ          -3.12894        -2.48442       -0.572555
LJ          -4.62483         4.45438        -1.93463
LJ           1.41753        -4.87927        -5.62881
LJ          -3.42712        -5.39277         4.83912
LJ          -5.23642        -6.11412        -3.77946
LJ           1.00806         2.18829         4.77784
LJ           4.80273        -5.37692         -2.0763
LJ          -4.97279         1.86535         5.58044
LJ         0.0203788        -1.40504        -6.08405
LJ         -0.915509         4.03697         4.56625
LJ           4.32291        0.913268       -0.347906
LJ          -1.11893        -6.32575         -4.7316
LJ          0.965147         1.50546         2.79269
LJ           5.58046         1.20009        -5.79444
LJ           3.79113        -3.30074        -5.23038
LJ         -0.953429         6.07931        0.875448
LJ         -0.291296         -5.5994         5.72763
LJ          0.872573         1.09375         5.60319
LJ          -4.63854          2.0552        -2.36405
LJ          -3.61677      -0.0303742         4.19313
LJ          -4.58382        -2.43794         6.14087
LJ          -4.66174         1.24678         2.31028
LJ           3.65728        -2.54558         1.01265
LJ           4.79923        -1.51558        -2.91276
LJ           5.67801         3.10816        -1.84404
LJ          -4.49164        -6.45591        0.528149
LJ          -5.53609      -0.0324962        0.967134
