108
#Comment!
LJ           2.70111         6.17737         5.17688
LJ           1.79919         2.68831        -5.44227
LJ           6.17292        -4.99691        -4.22337
LJ          -3.72764         6.04128        -4.31746
LJ           5.01361       -0.826301          6.4405
LJ           1.59784        -3.61362         2.17823
LJ           4.37054         5.01507        -5.24249
LJ          0.313352         2.01093         4.83215
LJ           4.18259       -0.907934         1.84151
LJ         -0.788316        -4.76657         6.42513
LJ         -0.734744        -4.62324         5.03807
LJ           1.07036         -2.3085        -5.71702
LJ          -2.37098       -0.906892         2.86349
LJ           3.06808        -5.50876        0.564228
LJ          -2.90168        -4.21835        -4.33087
LJ          -5.44452        -6.22233         1.94393
LJ          -1.54222         1.66105         6.38343
LJ          -1.99765          -6.337        -1.77172
LJ          -5.83449        -4.24351       -0.431943
LJ            2.0615        -5.35436         0.45492
LJ           5.75385         2.93807         4.38027
LJ          -4.36217        -1.97653        -6.05312
LJ          0.573936         -4.3632         3.48752
LJ           4.66879        -2.43229        0.923725
LJ           0.92912        -3.48343         3.94265
LJ          -5.12748         5.08184         3.53942
LJ          0.781964        -5.02446        -5.38546
LJ           6.05589        -3.62079         5.23403
LJ          -1.96773         4.71096        -2.04531
LJ         -0.302916         1.22937        -1.73066
LJ           4.94538        0.823597        -5.30244
LJ          -5.17666         4.21533        -2.43115
LJ          -3.88472         4.83691          1.6389
LJ           1.88752         2.62375         5.85248
LJ            0.6446         2.50173        0.640489
LJ          -5.91139        -3.48388        -4.97224
LJ          -5.83861       -0.655257        -4.20803
LJ          -2.42184         -2.1113        -1.54162
LJ          -2.54224        -2.55269        -5.54467
LJ          -2.68367        -4.72431        -5.46936
LJ           4.51075         5.67687          5.1923
LJ           3.33619        -4.00041        -2.12364
LJ          -4.55647        -6.14436         2.07286
LJ          -1.61914        -2.08198         5.40087
LJ           1.04624         1.33019         3.78856
LJ           5.78447        -3.49341        -2.52466
LJ          -4.39628        -5.09437        -2.77533
LJ           4.44581        -2.77898         2.13566
LJ           1.91104         5.12981         3.79815
LJ           3.25265         3.79425        -2.97264
LJ           3.81618         6.14532         5.38505
LJ           -2.6917          1.9394       -0.708398
LJ           4.81519        0.545696        -6.00567
LJ           2.79367        -4.29962         3.49596
LJ           1.27282        -1.29063        -0.10273
LJ           1.44775       -0.776762         2.48541
LJ          -5.59577         4.41053         4.01249
LJ          -2.99987         4.28869         1.53527
LJ          -2.27615        -1.22033         0.48234
LJ          -3.13313        -6.33254        -5.90418
LJ           4.53376         3.13268        -3.86215
LJ          0.389874        -5.52548         -3.9586
LJ           1.93906         6.06353         5.15943
LJ          -2.69495         4.03632        0.707045
LJ           5.59437         5.55544        -2.24037
LJ          -3.77668         -2.2347         4.91183
LJ          -5.69858        -3.84204         4.08434
LJ           3.35235        -4.63244          3.8425
LJ           1.84524         5.52342         0.89604
LJ          -5.09706         1.98641         2.49245
LJ          -5.24743        -5.73154        -0.32109
LJ            -1.473        -5.03799         5.50226
LJ          0.947941        -2.48262         -4.6445
LJ          -1.92129        -5.20794       -0.774336
LJ           -2.1798         1.97832        -3.82225
LJ           1.89016         2.97399         2.15266
LJ           5.07342         3.99696         2.23977
LJ          -1.87395        -3.44868        -1.35538
LJ          -5.31461        0.411041        -1.96764
LJ           3.32221         2.88235        -2.08176
LJ          -2.91242         5.50177        -1.73222
LJ          -1.63142        -0.62145         -6.0191
LJ           5.04134          4.8774         1.39521
LJ           4.20278         3.82154        -3.42072
LJ           1.99755        -2.91983        -4.39664
LJ           -3.1813        0.946372        -2.22313
LJ           5.59213          3.2147         -5.8613
LJ           5.30187         4.54396        -1.61502
LJ            2.2964        -5.93382        -5.65237
LJ           5.31993         2.62273        -2.27923
LJ          -5.01611         6.15716       -0.535046
LJ           2.61624         4.83716         6.28678
LJ           1.36918        -5.84684        -4.58166
LJ           4.32014         -3.2609        -3.59439
LJ           4.34283         3.12341         4.59017
LJ          -3.66389          1.9491        0.714558
LJ          -1.74498        -6.21987        -6.00358
LJ           4.08462         1.17608        -1.34336
LJ          -2.45456         3.43515        0.275047
LJ         -0.174069         3.18503          4.5352
LJ           3.50885         1.26133          1.6968
LJ          -5.07944        -5.22207         2.59031
LJ          -2.81215         1.39642       -0.532129
LJ           3.18076         5.21483        -5.97758
LJ         -0.972945        -5.36927        -3.02087
LJ           3.64433       -0.756401         4.29573
LJ           3.07737        -5.83279          3.9671
LJ          -3.06162        -4.68096        -6.03785
