108
#Comment!
LJ           1.82673        -2.69345        0.857456
LJ          -1.08267        -5.00133         1.45403
LJ           4.38981         6.45316        -2.47043
LJ           3.15378        -2.14395         3.66731
LJ           5.80362       -0.478014         2.01717
LJ           3.71446         4.84756        -4.43518
LJ           4.84498        0.281806         5.18345
LJ          0.105094         1.37716         2.94034
LJ            3.4815         3.43857         -3.7845
LJ          -4.09529        -5.08359        -3.49226
LJ           -5.2748        -3.37595         5.14501
LJ        -0.0568837        -5.25525        0.981805
LJ           -3.0669       -0.626237         3.46479
LJ           2.15046         5.72951        0.955814
LJ          -1.21423        -3.59406        -5.08199
LJ          -3.97083         4.90504         4.01606
LJ          -5.02878         1.81879        -6.15187
LJ          0.959973        -3.72302        -4.06739
LJ           3.05482        0.234153         1.59825
LJ          -1.99048          6.2574         3.90906
LJ          -4.70542        -5.59651        -1.35002
LJ          -6.27151         4.95501         4.28755
LJ           4.25639        -6.19314         3.97545
LJ           3.89641       -0.883164        -5.38865
LJ         -0.740879        -1.33602         1.18278
LJ            3.0206         4.41594        -3.49265
LJ           3.80631       -0.248891       -0.368168
LJ          -5.32447        -1.31507        -3.94151
LJ          0.953552         3.95682        -3.06137
LJ          -3.51513        0.774744        -5.30279
LJ          -5.91947        0.111769        -4.19506
LJ           -2.0749          6.0963          1.7715
LJ           -5.3948         3.81939        -3.63339
LJ          0.478103      -0.0882041         5.69983
LJ           5.59286        -2.40312        0.619037
LJ          -3.13226          2.7069        -1.49551
LJ            1.5476         1.70248        -1.95538
LJ          -1.77891        -1.95528        0.357563
LJ          0.249529         -2.9662       -0.704179
LJ          -2.99737         5.57793         1.97425
LJ          0.316561        -5.46891        -3.56279
LJ          -1.27212         6.11191         5.53222
LJ           3.15109        -3.58481         1.55469
LJ          -4.13898        -2.81064       -0.890802
LJ           -3.8084        -3.05812        -5.68477
LJ         0.0407427         4.37675         3.66875
LJ          -3.68391        -4.76832        -2.77396
LJ         -0.785161         1.58034        -4.16847
LJ          -4.79753         5.16338         -6.2894
LJ          -3.35197         4.46907         5.87243
LJ           1.87027         2.21563        -2.80153
LJ            6.3879         1.52937        -3.06237
LJ           5.19122         4.61426         4.23475
LJ          -2.26989        -1.80586        0.560969
LJ          -2.18485         -2.9561         4.79294
LJ           5.97994        0.459575        -4.37183
LJ           4.13119        -6.41823         1.84359
LJ           6.20304        -5.68624         1.93897
LJ           1.33658        -1.91087         4.91507
LJ          -3.57616       -0.493523         -3.7442
LJ          -5.17515         5.10811         3.39447
LJ          -3.41819         2.69357        0.206688
LJ           5.55386         3.99823         1.09784
LJ           2.23501       0.0682583       -0.957632
LJ          -4.24355        -2.18318         2.82717
LJ          -1.57619        -1.22302        -5.61564
LJ            3.2964        -1.65774         4.80683
LJ          -1.68935         5.56012          2.4409
LJ         0.0405908        -1.96288         -3.0421
LJ            4.3867          6.3537         5.82687
LJ            2.8355        -1.20668         -6.1939
LJ           3.42859         -2.4477         1.02936
LJ           4.33436        -3.61426         1.26931
LJ           1.53956         3.84361         1.17791
LJ           3.01594        0.548901          -3.662
LJ           5.13168         5.54226         2.78346
LJ          -6.05925        -6.18405        -1.68169
LJ           5.30356         5.47272        0.957407
LJ           -6.3019         2.34489         -2.3575
LJ          -2.56293          2.8912         4.29279
LJ         -0.538454        -4.53513        -1.27514
LJ          -4.89423         2.56961         3.17866
LJ           4.26372        -2.37446        0.602889
LJ          -5.55026         1.25913         5.05737
LJ         -0.809021         2.90168        -2.99717
LJ           -5.9352         3.20274        -1.08099
LJ         -0.385074         5.94355         3.15248
LJ           -2.4082         3.50905       -0.907264
LJ          -2.20795         4.64337         1.70045
LJ          -2.44655        -3.43365          3.2842
LJ          -2.85077         3.18976         4.61518
LJ          -2.67848         3.79315        -1.71287
LJ           2.86531        -2.70948         6.40034
LJ           3.44132         4.81905        -4.66927
LJ           2.25005         3.43936         -2.3435
LJ          -6.14798         1.87903       -0.621031
LJ          -6.27597        -2.08518        -2.92332
LJ           5.90055         1.34459         1.38342
LJ          -3.93729        -2.43269         3.91254
LJ           2.51242         4.11344     -0.00774735
LJ          -2.67607         6.16067      -0.0302668
LJ         -0.990543         4.33621       -0.727221
LJ          -5.78801         -1.8553        -4.09749
LJ         -0.999748        -6.27551        -5.79655
LJ           4.52893         1.06705       -0.886031
LJ          -1.85136        -6.34355         2.26577
LJ            1.7101       -0.720202        -1.38717
LJ          -1.79465        -2.42596         2.27936
