108
#Comment!
LJ           1.79833         2.74436        -4.52543
LJ          -5.79205        0.738292        -4.58139
LJ           6.44253        -0.20542        0.178128
LJ           2.80126         5.86348          -6.207
LJ           2.69005       -0.608298        -2.19531
LJ           6.44417         3.62909         1.42328
LJ         -0.451046        -2.09091        0.836528
LJ           1.20513        -0.24502        -3.78653
LJ          -4.03497        -5.26139         5.98575
LJ         -0.761005        -4.27061        -5.09753
LJ           2.02921          4.1589        -5.47615
LJ           -6.1919         6.43325        -1.50764
LJ           5.46336        -1.42102      -0.0453515
LJ          0.817849         5.84652         -4.9947
LJ        -0.0163514          4.1927        -2.56113
LJ          -4.61922          2.6228         1.66936
LJ           4.24315        -1.35772        -4.48948
LJ        -0.0960664        -1.78386         5.98306
LJ          -3.07512       -0.935678         -1.9373
LJ           3.82574       -0.701677         1.13192
LJ         -0.667624        -3.16672        -4.20248
LJ           2.06491        -3.74334         4.91227
LJ            4.4347          2.6241         2.80957
LJ          -3.53566          2.8869         3.71546
LJ          -6.03844        0.422001         4.04694
LJ          -5.47924         -1.3945         4.95167
LJ          -6.07371        -2.16025         5.59977
LJ          -2.97078         3.64217         4.95562
LJ           3.51867         2.12683         4.46232
LJ           2.97696         5.08506        0.722089
LJ          0.441076         5.14066        -4.13087
LJ           2.47158        -3.82626         6.20938
LJ           5.30511         1.85534         6.16888
LJ         -0.896375         5.53331        -4.87406
LJ           4.89251        -2.07978         5.37508
LJ           3.68627       -0.537816       -0.290999
LJ           -2.6936         5.57936         5.19032
LJ          0.432711         -1.0526         1.01857
LJ          -2.01966         1.55133         1.25013
LJ          -5.46349        0.917884        -1.05967
LJ           2.43566        -1.65125       -0.783516
LJ          -5.82236        -2.50722        -6.37677
LJ           -5.4859         3.84611        0.358545
LJ          -1.11273        -2.92976        0.914474
LJ          0.693318        -2.46955        0.218407
LJ          -4.94107         1.94888         3.16979
LJ           3.95022        -0.31599        -2.47652
LJ          -2.58529        -2.64362        -1.80926
LJ           5.13393        -3.49188        -4.91587
LJ           5.60379       0.0517195       -0.410472
LJ          -5.58886        0.632299         2.71711
LJ           1.60177         1.98677        -6.43316
LJ           4.58139       0.0586576         4.36424
LJ           6.41379          1.5232       -0.227955
LJ          -1.35462         3.83692        -2.63005
LJ          -1.06686         -2.9097         6.00728
LJ          -2.54469       0.0670778        -3.81941
LJ          -6.14616         1.42392        -3.91693
LJ          -4.22432         -5.2005         2.14277
LJ           6.23283        -1.01826       -0.716961
LJ          -4.81218         -5.1499         5.15378
LJ          -2.11933         4.93006        -6.35215
LJ            4.5429        -2.68807        -2.94007
LJ           -4.3906         1.00902        0.723949
LJ          -3.76569         3.52247        0.378857
LJ           1.74165        -6.33608         4.33707
LJ           -3.6351        -1.31337        -1.16269
LJ           2.31553         1.75786         1.96654
LJ           3.02782        -2.62071        -1.03209
LJ           2.84027         3.66478         2.38889
LJ          -1.77921         1.02233         2.68654
LJ           1.35624        -1.63983         0.17204
LJ          -1.73435        -2.78281       0.0814701
LJ          -1.54656        -1.82744         1.15446
LJ          -5.08448         4.04039         4.47702
LJ          -5.97923         5.17195        0.874681
LJ          -2.73269         6.38313        -4.92246
LJ          -1.90628        -2.47247           2.227
LJ           1.60193         6.33926        -5.68888
LJ         -0.595209        -3.43227         1.85711
LJ          0.315315          1.2325          4.3637
LJ             3.748        -2.35671        -2.06754
LJ           1.72065        -1.97635        -1.58813
LJ         -0.831634        -2.43755         1.86212
LJ          -6.41293        -4.76938        -2.81656
LJ          -5.92663        0.633419         1.33559
LJ          0.897764        0.806362         1.93839
LJ         -0.777907       -0.591724         -2.3017
LJ           4.75838        -0.80508       -0.863074
LJ         0.0180503        -4.18829         5.23699
LJ            2.5396        -4.11678         3.84764
LJ           6.41857        0.625823        -1.15328
LJ           1.94464         1.99021        -2.07442
LJ           3.14971         3.96648        0.155095
LJ           6.25459         3.86186       -0.838297
LJ           3.93135        -1.66617        -0.42993
LJ           -5.4049        0.862201        0.157641
LJ          -4.56525         3.51567       -0.973501
LJ         -0.659707        -2.44901        -1.71349
LJ          -4.43551         3.42203         -2.2998
LJ         -0.971641         0.58319         1.86809
LJ           2.02968         -2.7231       -0.241052
LJ           1.52536       -0.700955         4.98346
LJ         -0.447965          1.1454         1.11817
LJ           4.21509        0.490119         1.91819
LJ           3.93135         1.55457         1.57287
LJ           4.95513        0.299542        -2.72932
LJ           4.31592         1.54063         2.73221
