108
#Comment!
LJ            -3.318        -3.27527        -1.13679
LJ           4.67437        -1.63733        -5.44755
LJ           1.76893       -0.727788        -3.78727
LJ           1.25753          3.2405        -1.98005
LJ          -2.49154         3.05377         6.29026
LJ          0.877697         1.15423        -6.16021
LJ           -3.3402        -2.92555        0.710697
LJ             5.537         5.44682        -5.77697
LJ         -0.578078        -1.55576        -1.23839
LJ           1.24801          1.3685        0.950048
LJ            2.4036        -3.22111        0.081246
LJ           -5.3302        -4.43892        -2.75569
LJ          -1.51413        -5.76724       -0.497178
LJ          0.661288        -2.14754        -4.81359
LJ           -1.6477         6.25458        -1.99362
LJ          -4.82979      -0.0325615        -3.26773
LJ           5.51068        -4.64062         1.71623
LJ          0.979558          4.6551        -6.37905
LJ           1.90938        -4.76943        -3.18082
LJ           5.00501        -3.57658        -1.98445
LJ          -4.83046         4.53229         3.30832
LJ         -0.383516        -3.89905        -1.99206
LJ         -0.912637        -4.52729       -0.441903
LJ           6.06435        -4.69462        -2.97823
LJ          -6.42865         2.52306        0.543584
LJ         -0.237815          1.1366        -4.93079
LJ          0.503063        -4.49083        -1.50264
LJ           3.87476          4.3187        -3.83042
LJ          -3.12302       -0.851512         3.35424
LJ          -5.54212       -0.455921        0.116605
LJ          -3.98871       0.0658696         4.13057
LJ          -3.00646        -1.28529        -3.47141
LJ          -2.38473         1.08335         1.82533
LJ          0.454035        -4.62849         4.08583
LJ          -3.03875         -6.2463          2.2138
LJ          -3.36581        -3.81004         6.02775
LJ         0.0222681        -4.60256         4.08274
LJ          -1.06138       -0.898516           3.779
LJ           3.97023         0.96526        0.265677
LJ          -3.94676        -0.65918         1.75544
LJ           2.35573        -5.33838         6.13581
LJ          -3.02581        -3.69498        -5.62394
LJ           5.20907         6.29534         1.11935
LJ          -4.03864       -0.963184         3.60127
LJ          -6.46242         2.52306         4.77732
LJ          -3.46226          5.7161        0.794905
LJ          -1.51303       -0.310171          1.4613
LJ          -4.29614         1.90602         5.84923
LJ           1.74496        -4.33973        -5.52745
LJ           1.05701         4.91772         1.88929
LJ          -3.42036        0.190221        -3.29546
LJ           3.32821         3.21134         3.62283
LJ           1.07855        -5.88641         2.16045
LJ          -1.53937        -4.70296       -0.468275
LJ           6.22259        -2.89059        -5.98175
LJ          -4.18528        -5.14678        -1.41467
LJ          0.444024        -4.22877        -1.04229
LJ          -5.49531       -0.135455          3.3344
LJ            5.9141        -3.23774        -6.16462
LJ           2.05064        -6.10904        -5.63668
LJ           1.92266       -0.611035         -1.2652
LJ           2.03158         4.05754         3.97746
LJ          -5.16379           5.484         4.80494
LJ           2.04267         4.30411        -1.29326
LJ          0.893838        -2.65853         6.39572
LJ          -2.63861         2.15527       -0.638105
LJ          -5.86582         1.47385         0.46808
LJ           3.18032         3.51781        -5.02646
LJ           6.30636        -3.19716        -5.96314
LJ           4.54983         2.97119        -5.45279
LJ           2.35189         -5.2112        -1.85203
LJ           5.50507        -5.92368         3.60571
LJ          -2.14405         4.81399        0.204164
LJ           2.11885        -6.26398         5.83505
LJ           6.14809         6.15007         5.01144
LJ          -3.24485       -0.957409         4.81287
LJ          -1.10225         3.15998         0.45126
LJ            4.8229         -3.3962          3.5313
LJ           -5.9219         4.57942        -5.81242
LJ           4.71629        -6.11646        0.987323
LJ          -2.85752        -4.84132      -0.0775094
LJ         -0.698774        -4.00747         2.31762
LJ          -4.76291         2.65474        -6.04173
LJ          0.315125        -4.66309        -2.94538
LJ           2.57778        -2.71588        -1.74172
LJ          -3.78375         2.08824         5.47462
LJ           4.26697        -5.97935        -3.74842
LJ          -3.29451        -3.60357         1.78163
LJ        -0.0736646          -5.041        0.439716
LJ          -4.44144         -6.2634         2.80135
LJ           6.30419        -5.66881         6.16905
LJ          -1.45447        -3.57148        0.307022
LJ          -2.80682        -4.69621        -2.35066
LJ         -0.250427         1.53885         3.48987
LJ          -1.21971        -1.53259         6.24674
LJ         -0.963018         1.84523         5.27064
LJ          -0.48165        -1.17436         6.02712
LJ           2.66778        -2.91487        0.408306
LJ          -4.53904        0.790178        0.169328
LJ           4.36407          5.9998         2.89791
LJ           3.45649         4.33641        -3.81903
LJ           4.34926        -2.92735         0.50137
LJ           1.17313         4.86891        0.173018
LJ          -3.24939        -3.64174         5.78033
LJ           1.75768        -1.18445        -5.37802
LJ           2.22846         4.06242         1.67735
LJ           5.65616        -2.32839        -5.10501
LJ           5.92196         -5.8928         2.41732
