108
#Comment!
LJ          -6.17253         4.97871        -4.88667
LJ           3.37552        0.382669        -4.15687
LJ          -3.84809          6.2058         -3.8976
LJ          -3.18279        -6.38876          2.1646
LJ           4.90721        -4.71171        -5.29818
LJ          -1.88176        -4.78933        0.285074
LJ           5.20629        -1.43942        0.377706
LJ           6.16407        -4.47836         1.17258
LJ          -2.79424        0.286758        -1.98089
LJ           3.27222       -0.611086         1.74907
LJ          -2.91985         1.06454         -3.3855
LJ          -5.37653          1.5959        -5.60359
LJ           5.68991         5.86771         6.23369
LJ          -1.10813       -0.904538       -0.122773
LJ          0.383108         6.21809         5.87355
LJ           1.50202         4.58826        0.622063
LJ          -3.93302        -6.23991         5.04814
LJ          -5.35555       -0.733697       -0.369532
LJ          -1.82516         3.05864         5.04538
LJ          -2.17566         4.01741        -5.38124
LJ          -1.85389        -2.48432         4.03649
LJ          -3.02975        -4.47548       -0.358781
LJ            3.0538         5.09449          1.1639
LJ           6.45239        -5.65629        -2.24128
LJ          -2.12836        0.549749         -3.2795
LJ         -0.723844         3.19172         2.13815
LJ          -2.25884        -5.99982         4.95654
LJ          -1.64783          -3.562         3.97996
LJ           1.35005        -5.63859        -2.32674
LJ            1.4721        -5.40221       -0.293462
LJ           0.15295         4.76864        -5.28724
LJ         -0.866609         4.72041        -4.18796
LJ          -1.02113        -4.41797       0.0822732
LJ         -0.293489        -3.62977        -2.53052
LJ          -3.72881        -3.69026        -1.80929
LJ            -2.962        -6.36527        -1.55476
LJ           1.83413        -4.84332         -3.3816
LJ          -1.32339         4.22138         2.36582
LJ          -6.16274       -0.614774        -3.03458
LJ          0.378621        -1.98389        -5.25667
LJ           -3.5086         3.72542         2.38304
LJ          0.168245        -1.05107        -0.61561
LJ           3.68012        -4.53785        -1.95632
LJ          -5.61377         -2.3056         5.36862
LJ           2.29748         6.00744         -1.3787
LJ           2.91961        -4.07376        -3.01704
LJ           0.44666        -4.27783         5.71169
LJ           2.51973         5.87496        -2.56178
LJ           3.33572        -3.47562        -6.21673
LJ          -1.00312         5.00852        0.134318
LJ           6.43517        -4.22085        -2.28094
LJ           3.33868         1.66132        -4.88509
LJ           2.24627         -4.7901      -0.0902809
LJ           4.44699         6.06163          2.2599
LJ          -2.84227        -5.01966        -1.70302
LJ             1.133       -0.747982        -1.52398
LJ           3.52119         6.06419         6.04751
LJ           6.16197         5.45328         1.93696
LJ          -3.92076        0.230952         1.11192
LJ         -0.592008        0.543373         2.98791
LJ           5.73203         3.00227        -6.24637
LJ          -3.53307         2.10816        -4.35822
LJ          -2.77765        0.199287         4.64046
LJ          -3.47959       -0.405069        -5.51952
LJ          -4.47342       -0.507365       -0.948785
LJ           3.40159      -0.0160084         4.06526
LJ           5.56704        -6.44441        -5.89763
LJ           4.40073         4.76246         1.20652
LJ           1.24978       0.0775248        -5.81873
LJ          -1.68067        0.608296         5.79769
LJ           6.44845         2.07613         3.29746
LJ          -2.84565        -2.63537         3.68057
LJ          -3.03658         -4.1097        0.842957
LJ          -1.49592         4.00618        -6.19872
LJ          -4.56632         1.69358         1.18124
LJ            3.4758        -1.12314         2.94904
LJ           3.24413         5.78035         2.60668
LJ          -4.29266         -2.2049        -4.09505
LJ         -0.395077        -5.27069         4.72869
LJ           5.38362        -3.72468        0.579218
LJ          -5.87461         2.55675        -1.99377
LJ          0.351876        -1.83109        -3.82131
LJ           2.41464        0.783735        -3.71755
LJ          -5.61595        -4.75799      -0.0256633
LJ         -0.565455         4.72871         5.29856
LJ           2.70509         -1.0339         1.32394
LJ          -5.99084       -0.756889         6.16843
LJ          -3.12638        -1.17663         2.76365
LJ           4.60231        0.427582        -4.02264
LJ          -6.38926         2.92811        0.960881
LJ           4.07615         5.67635        -2.62952
LJ           4.74097         2.07941        -3.77505
LJ           4.83411        -5.14458         2.99229
LJ          -4.77997         1.60543         6.03729
LJ           1.93641        -2.13645         2.39429
LJ           3.35044          6.2602        -6.09559
LJ          -6.15278        -1.44712        -2.66248
LJ           6.27601         5.41341        -4.16607
LJ           1.94597        -6.25843        -4.54708
LJ          -2.00421        -5.31402         2.88074
LJ           2.76475          1.0965        -2.00631
LJ          -2.01542         1.63587       -0.673381
LJ           4.18352       -0.426758        -4.95428
LJ           2.15166         5.30533        -5.53441
LJ           5.63652        -3.25269        -3.36684
LJ           4.64074       0.0646024        -4.99518
LJ           5.91619         2.38918       -0.051923
LJ          0.610422         4.24628           1.641
