108
#Comment!
LJ          0.854789       0.0405447        -2.95951
LJ           4.38259        -1.19863         2.90088
LJ           3.11981       -0.174525        0.899876
LJ           4.82647         2.83492        0.762511
LJ            -3.753        -5.22333        -6.07634
LJ           3.67634         4.50359        0.459458
LJ           -2.6315       -0.804812         4.02391
LJ           4.47775        -1.97978        -4.16851
LJ          -1.79823         3.68478         1.84778
LJ          -3.63428        0.189254        -6.11114
LJ          -3.24814        -0.38536        -5.08792
LJ          -3.55376         2.85527        0.111771
LJ          0.889917         5.72918       -0.707984
LJ          -4.36386        -1.18932      -0.0255186
LJ          -2.19511         1.38198        -5.34785
LJ          -1.35465        -2.78299         2.56726
LJ         -0.195834        -4.08002         6.11513
LJ         -0.936433         4.33876        -4.91845
LJ          -2.86692        -2.84938         6.43633
LJ          -3.84928         3.68865        -5.65704
LJ          -2.25227         1.52049         1.86721
LJ           3.80765         5.64675         1.48575
LJ           6.44639         1.02511        -5.45606
LJ           1.09715        -4.54025         3.14219
LJ          -2.57075        -2.66335        0.316604
LJ           5.86882        -6.25263        -1.90114
LJ          -5.40931         5.45974        -1.46419
LJ          -5.50273       -0.992245        -4.72536
LJ          0.889052        -6.45384         0.98549
LJ           1.59555       -0.151073         4.10295
LJ           1.64299          3.9454        -3.92507
LJ           3.66492         6.41578        0.116164
LJ           5.61923        -1.31993         4.45343
LJ           3.32655        -2.80614        -1.55586
LJ           5.54876         5.24498         1.55613
LJ         -0.719784        -1.25405        -5.61747
LJ          -3.55278         6.25834         4.98158
LJ          -4.39504       -0.328189           1.605
LJ          -1.52907        -0.90358         5.80179
LJ          -5.88735         4.44558        -0.34776
LJ           4.59258        -2.94146        -2.61831
LJ        0.00623329         -4.9231           4.085
LJ          0.721699        -3.21819        -1.50738
LJ          -3.67477        0.270011         2.44529
LJ           5.70666         4.63989          6.3271
LJ           5.35858        0.775156       -0.351548
LJ          -5.11748        -3.23304        -1.60726
LJ          -2.98062       -0.210648         5.88309
LJ           2.07414        -1.23291         5.30402
LJ           5.40203       -0.020187         -1.3957
LJ          -1.61601        -3.76453       -0.181309
LJ          -2.22948        -5.52549        -3.53734
LJ          -2.81695         4.27948        -2.37681
LJ            3.3349         4.87254       -0.501795
LJ           2.56022         5.88867        -2.24888
LJ          -4.23023         5.02212         5.57726
LJ            3.4844         3.23187        -3.99251
LJ          -4.53787         5.20846        -1.84868
LJ           2.15863        -4.20604       -0.414022
LJ          -4.91398         6.20398       -0.833337
LJ          -1.04627        0.391601         5.62207
LJ          -2.90315         3.86064         2.65775
LJ          -5.01892         6.13636         5.69648
LJ           4.07457        -6.21951         1.08934
LJ           5.98936        -6.01396         2.44285
LJ           3.17696        -5.90596        -2.10467
LJ           3.26114        -1.34435        -1.41075
LJ           1.32808         2.69052        -3.64124
LJ           5.46833        -1.91646           -2.54
LJ            1.4258         3.75589         3.07574
LJ          -1.58906        0.743128         1.19695
LJ           -4.2085        -1.29325          2.9636
LJ          -6.44006        -3.20624        -1.88896
LJ             -1.35        -3.69289        -6.20119
LJ          -4.23777        -2.51678        -3.85124
LJ           2.33672       -0.995284        -1.52809
LJ           5.18545         3.97008        -5.55467
LJ           -1.8172        -1.52187          4.6681
LJ          -5.21514        -6.44547         -4.2455
LJ          -2.18278        -4.23499        -5.10094
LJ          0.361233       -0.712073        -4.13161
LJ            4.6074        -1.02178        -3.32973
LJ           3.25157       -0.413319        -1.45789
LJ          -2.42175       -0.875166          5.2291
LJ          0.132299         4.61546         6.23159
LJ          -3.46637       -0.371728       -0.171286
LJ          -1.77814        0.592387         2.34443
LJ          -5.65464         3.05997         5.85655
LJ           4.39495       -0.880108        -1.63826
LJ           1.52035         5.12437        -1.70381
LJ          -5.03808         3.92425         4.33908
LJ           6.04564       0.0926018        -2.75216
LJ          -3.58508         4.96923        -5.25162
LJ           2.02535         1.66869         1.45005
LJ          -3.84707        -5.81456        -4.30626
LJ           4.95013        -2.29301        -1.55247
LJ          -1.77131        -1.78239          3.3808
LJ         -0.503613        -4.43876         3.12967
LJ         -0.430033        -5.14914        -5.84611
LJ           6.33875         4.89546        -1.28806
LJ           -2.8623        0.648238         1.50369
LJ           2.87585        0.395736     -0.00953353
LJ           3.97237         1.11447        -3.32667
LJ          -1.63631        0.124024        0.317632
LJ           -5.9191         3.14982         1.27089
LJ           4.49225         3.16429         2.06605
LJ          -1.76942        -3.97894        -1.53296
LJ          -5.80319         1.34845        -6.24954
