108
#Comment!
LJ           2.32588        -3.80743        -5.62079
LJ          -4.84668          4.6769        -1.90726
LJ           2.32192         2.12352         1.00834
LJ          -5.33742        0.382017         4.62454
LJ          -1.90842         3.89268         2.77926
LJ           3.69154         5.77948         1.58296
LJ         -0.976971        -3.30751        -1.98001
LJ           -4.4219         5.04282        -2.91271
LJ           2.71002         -3.5002         1.85982
LJ           6.41619       -0.436091          1.1951
LJ          -4.15199          3.4445         6.06215
LJ          -1.47379        -1.20356        -5.96757
LJ          -5.97695         4.67287         5.34636
LJ          -1.74368          4.1065         3.70006
LJ          -4.74654        -1.88477        -1.30171
LJ          -4.14726         2.76986        -2.20547
LJ          -1.70866         -5.0912         5.33127
LJ           4.83006        -3.83832       -0.539418
LJ           3.28841       -0.495149        -3.57438
LJ          -5.71019        -3.53403      -0.0329392
LJ           4.55823        -1.85458         4.99026
LJ          -3.75024        0.661531         2.18955
LJ          -0.54298        0.277356        -1.60981
LJ           2.93785        -3.38056       -0.927443
LJ          0.995841        -4.66762        -1.20749
LJ           1.74287         2.16705         3.49808
LJ           3.96403         4.37302          -4.005
LJ          -2.04946        -2.89401         -5.5133
LJ         -0.291324         2.23317        -4.63414
LJ            1.6648        -5.73213        -6.45875
LJ          -3.34735         3.55881        -1.85575
LJ          -3.21898         6.19273         5.30265
LJ         -0.355442        -4.57227        -1.78249
LJ          -4.65624         1.92025         5.89953
LJ          -6.15375        -1.66522         3.55488
LJ          -5.92608       -0.715445         6.09469
LJ           4.46995        -5.64191        -5.87346
LJ         -0.571084       -0.289385         5.16316
LJ           -3.5298        -5.82782        -2.54004
LJ           4.85207           1.632       -0.305394
LJ          -6.03008        -3.26502          3.7447
LJ           3.04532         3.83367         6.15833
LJ           -6.4359         3.87888         4.01262
LJ           3.59751        -6.35816         6.10128
LJ          -4.54485        -1.08211        0.753219
LJ           2.81339         6.41169        -2.16765
LJ          -3.35494         3.65479        0.613246
LJ          -3.43292        -5.84149         6.38963
LJ         -0.319406        0.926694         -3.9242
LJ         -0.756964         2.20949         2.64254
LJ           2.22083        0.956389          5.5919
LJ           2.42392         2.42907        -5.74782
LJ           4.05001      0.00734249        -1.05832
LJ         -0.623603        -4.75888         2.68966
LJ           1.33385         4.69737         1.90235
LJ           1.51362        -6.44365         2.39446
LJ           5.25242         -2.6736        -2.78299
LJ          -0.18696         3.78039        -5.04864
LJ          -1.30934         5.81474        -2.00844
LJ          -2.75048        -6.25473        -1.18325
LJ           3.72372       -0.661439          3.9609
LJ            2.6849         6.14554         4.00852
LJ         -0.332155         3.24969        -6.44381
LJ           2.57055        -6.32208         1.00388
LJ           6.24049        -2.17994        -2.56251
LJ          -3.67338         3.44122        -2.14264
LJ           5.33815        -5.47214         6.22587
LJ          -1.38536        -5.95872        -3.44373
LJ           2.69492         3.75502        -2.96802
LJ          -2.38201         1.29892         2.10259
LJ          -4.98459        -3.77476         2.92955
LJ           2.45336         5.48807        0.548195
LJ           6.19462       -0.406661        -5.83238
LJ           4.67947        -6.34312        -4.19033
LJ         -0.896928         3.65612        0.213306
LJ          -0.53451         3.38464         3.45868
LJ          -3.58153        -2.44365        -6.03273
LJ          -4.90883        -3.87189        -2.81092
LJ           2.57319         5.31588          -3.606
LJ          -3.66831       -0.539247         3.75942
LJ           2.52232        -1.51404         5.70168
LJ           2.92604         3.69023         2.34243
LJ           5.52435          1.9939        -1.31392
LJ          -4.09062         3.41169        -3.64412
LJ          -4.19054        -3.44657        0.306021
LJ          0.420772         4.14233         5.40813
LJ           3.99865        -2.17754         1.53008
LJ          -2.48992          -3.943        -5.04242
LJ           -4.1182        -6.13046        -2.75446
LJ          -1.76229        -2.16143        -3.25542
LJ         -0.536786        -6.08977         2.71367
LJ           -3.5301       0.0261051        -3.90007
LJ           3.56839         3.79396        0.776416
LJ          -4.67772         1.68408         4.93766
LJ          -1.74348         2.31308         3.01406
LJ           3.68493         2.97376        -4.56034
LJ          0.886713        0.618624        -5.83135
LJ          -3.50473         1.91019         3.47216
LJ          -5.00611        0.615952          5.1074
LJ            2.1399       -0.100697         2.65124
LJ           1.62144        0.110466        0.597114
LJ          0.830294        -3.92055        -3.55612
LJ          -3.33207        0.788345        -4.08267
LJ           3.88246         3.39128         4.81394
LJ           2.35537         5.31667       -0.225693
LJ           3.49776        -3.31256         2.06717
LJ          -6.07676        -1.78386         5.98703
LJ          -3.76986         2.74848        -1.03527
