108
#Comment!
LJ           2.73691        -1.55427         2.73696
LJ         -0.246804        -1.22043         6.18754
LJ           1.52869        -1.92405         4.69644
LJ          0.137032        -4.99872         4.27292
LJ           5.99155        -6.36307       -0.737821
LJ           6.19978        -4.60235         -4.5181
LJ          -6.40923        -6.44171         5.07953
LJ          0.307698       -0.552795          1.1856
LJ           4.25799       -0.825894        -1.63432
LJ           4.31873        0.392833         1.69429
LJ          -2.01912      -0.0611123        -2.54712
LJ         -0.553361         6.19022        -2.97264
LJ           5.63155         4.23401         6.02787
LJ           3.64334        -5.70908         4.00701
LJ           5.19771         4.39083         2.66973
LJ           4.19087         2.76301        -4.17802
LJ          -1.04354          3.9359        -3.66036
LJ         -0.457563        -1.02609         0.11806
LJ           2.23551          5.3054        -1.96473
LJ           3.71193         4.65556         6.19235
LJ          -4.39846         5.69899        0.158388
LJ           5.70341       -0.881063         3.68936
LJ           5.70006         4.40077        -3.43966
LJ          -4.10001        -2.14923        -3.18941
LJ          -3.76966         5.58191        -3.11933
LJ           3.16868        -5.56224         6.02114
LJ           1.70765         4.52445        0.799592
LJ          -1.60139        -6.43619        0.661631
LJ            2.9379         4.77999        0.535812
LJ           2.63527        -3.20853        -0.38583
LJ          -1.29753       -0.713937          4.8161
LJ          -5.42637         4.14331         1.58409
LJ          -3.52247         5.02022         4.42477
LJ           6.15458         3.67815        -6.26821
LJ            3.5663         2.19218        -1.95568
LJ           -2.7148         5.37299         3.41714
LJ       0.000768425        -3.14606        -2.04303
LJ           1.37579         4.78379        -3.63929
LJ          -4.85966        -1.40804        -1.80069
LJ          -5.33684         2.84188        -5.87223
LJ          -3.86133         6.38589         4.05197
LJ           3.12922         1.24824         1.10891
LJ           2.38546        -1.58285         -5.4503
LJ          -1.28121        -2.72724         1.54274
LJ          -6.19767         3.37566         6.14578
LJ          0.583658        -6.11278         5.82829
LJ           6.13718        -3.32022         -5.3717
LJ           -5.5469        -6.05537        -2.94866
LJ            1.3029        0.578589       -0.602349
LJ          -5.34825        -3.54507        -4.57038
LJ          -4.73155        -1.03547         6.32913
LJ           5.24889         2.22105         5.52927
LJ            2.6028         0.97501         4.12756
LJ          -3.18283        -5.19142         4.12477
LJ          -2.54343        0.392076          -5.368
LJ           1.60339         4.68602         4.16756
LJ          -4.19455        -5.17193         4.74746
LJ           4.37239        -1.27961         5.22418
LJ         -0.178595        -1.85836        -3.33549
LJ          -3.93068        0.921307         1.44296
LJ          0.572867         1.47814         4.87137
LJ          -4.86898        -4.73055        -3.17713
LJ          0.747199        -2.53635          5.9387
LJ          -2.64887        -6.43819        -1.68034
LJ          -3.34099        -0.49374        -1.77224
LJ          -1.98304          4.9462        0.603104
LJ          -2.39815        -6.41234         2.82857
LJ            2.6648        -3.78206     -0.00164819
LJ           3.45907        -1.35353         3.45632
LJ          -4.11858        -6.43933        -2.28031
LJ           4.07618        0.955869         2.14501
LJ          -2.20284       -0.462514         6.26689
LJ          -4.22254        -2.27762        -4.07989
LJ           2.13609        -2.27961         1.62807
LJ           1.63109        -5.49912        0.737555
LJ           4.83662        -3.68483       -0.325455
LJ          -3.28206         5.26631        0.316803
LJ          -4.61813        -5.56779        -5.27975
LJ           4.68616        -2.20945        -3.85568
LJ          -5.91433        -5.26119        -1.28519
LJ          -3.49543        -3.88681         1.59649
LJ         -0.357559        -2.09397        -4.00926
LJ          -4.93975        0.920922        0.137737
LJ           -3.4829         4.59322        -5.82493
LJ           -5.8152         3.62943         4.13596
LJ         -0.129227        0.695283        -1.93661
LJ           2.69798        -1.38542        -1.97437
LJ          -2.15739        -6.00152        -4.82478
LJ          -1.59307        -4.00668         4.25938
LJ           4.98071         5.00579        -6.08013
LJ          -1.62757        -5.69726         3.91996
LJ          -3.54327         1.26496        -1.81888
LJ             1.957         5.91456         2.38636
LJ          -1.38771         1.19563        -1.47915
LJ           4.05935        -3.53932        -1.14824
LJ           4.93605        -0.20075        -5.32579
LJ           4.10644        -6.34059        -2.80437
LJ           -2.4124        -4.90618        -2.60397
LJ           4.24777        -5.22952         4.22279
LJ           5.97521       0.0878807        -5.83948
LJ             6.205         6.17842         3.66137
LJ          -1.16466         4.33477        0.709904
LJ           5.91849         4.05369         1.15947
LJ          -1.82741        -1.02569         -2.8463
LJ          -4.06136         -5.0212         1.83252
LJ           2.79664        -3.49039        -4.29972
LJ         -0.682795         4.14033          -3.241
LJ           2.76558         2.76603      -0.0320407
