108
#Comment!
LJ          -1.32554          2.1899        0.335615
LJ           5.42111         1.92019         6.19381
LJ           3.31633        -6.03768          3.2228
LJ          0.970644        -4.04436         3.89573
LJ           1.85968        -5.01553         5.47353
LJ           -4.4407         3.03401         3.28318
LJ           3.88761        0.576512         1.92771
LJ           3.51171          5.4575        0.663534
LJ          0.927254         1.16461        0.228547
LJ          -4.02557        -5.74366         2.78538
LJ           6.33918         4.39641        -5.76882
LJ           -1.0357        -3.04203        -1.90675
LJ          -2.00795         1.01009         4.26356
LJ           4.60363        -3.56676       -0.360288
LJ           2.75691         4.82681        -0.47157
LJ           4.68934       -0.145755         2.51611
LJ           3.45318         5.86439         -2.5313
LJ          -5.07167         5.90499        -4.89058
LJ           1.89866        -5.17057        -5.30964
LJ          -4.41221         3.48783        0.303401
LJ         -0.148761        -2.78744        -4.49683
LJ          0.749496        0.491215         2.81802
LJ          -4.94139        0.477086        -5.89348
LJ           4.37765         2.78657         4.36626
LJ         -0.725877         6.16532          6.4258
LJ          -2.43658        -2.92867         3.78144
LJ           1.96902        -5.03336        -5.44166
LJ           1.86321        -2.24941        0.764549
LJ          -6.06537        -2.24522         2.71628
LJ         -0.498717        0.473711        -1.03601
LJ          -5.88816         3.83091         5.17514
LJ          -4.00154         2.11061        -5.43677
LJ            5.5351        -3.28212         3.17914
LJ           3.27811         5.43358        -5.56883
LJ           1.42893         3.36435        -5.94603
LJ           -2.5875         2.39238         6.36729
LJ          -2.34282         4.30463        -2.02513
LJ           2.88434        0.663218         3.23254
LJ           1.32335         5.92307         1.58074
LJ         -0.436076        0.837491        -3.34405
LJ           4.50591         5.69126        -4.99381
LJ          -3.37666        -5.04538        -1.75436
LJ          -1.10533        -0.26044        -3.39773
LJ           4.77287           1.331        -1.95063
LJ          -2.02894        0.269589        -3.38813
LJ           3.89617          1.0229         3.69469
LJ             2.372         6.30097        -3.30525
LJ          -1.90618         3.09416    -0.000185281
LJ          -1.12728         4.43831        -4.75991
LJ          -6.03545         6.05997         1.31336
LJ          -3.38034       -0.722579        0.377045
LJ          -5.14922       -0.242309        -2.51473
LJ         0.0832761        -3.46129        -3.63159
LJ           1.34064         1.34666       -0.616258
LJ          -4.63931          4.7113        -4.56484
LJ         -0.570865        -6.23834         2.58763
LJ           5.07386         5.30529         4.33244
LJ          -6.37266        0.207076        -5.74431
LJ          -6.14569        0.924302        -3.49045
LJ           4.06717        -4.43821         6.34634
LJ          -1.36124        -2.89074        -3.66367
LJ           5.62231         6.31903         1.97843
LJ          0.977661        -4.04727        -4.55785
LJ           0.46719         3.95377         1.86102
LJ          -4.31321         1.17372        0.170924
LJ           1.73824       -0.972678         6.16733
LJ           2.89888        -2.82663         2.05382
LJ           1.52204         2.23868         4.25694
LJ         -0.795436         3.29022         -1.0636
LJ           2.08338        -1.95792        0.199654
LJ          -4.57879        0.432065         -5.2017
LJ          -4.95382        0.774589        -4.68848
LJ           4.45804         4.40246        -1.28808
LJ           5.94936       0.0128911        -2.66182
LJ          -3.00198        -2.16281        -0.25776
LJ           3.69918         3.84213        -0.20054
LJ           1.84935        -5.57389         -2.3539
LJ            3.2882        -4.20477         1.94054
LJ          0.868209        -2.09364         2.94963
LJ        -0.0543982        -5.13861        -3.68923
LJ           2.31751         3.08733        0.194599
LJ         -0.781531        -4.32488        0.413925
LJ          -3.31934         1.29165        0.970065
LJ           4.52486        -1.16223         5.35194
LJ           5.45412        -4.19349       -0.274734
LJ          -2.82111        -2.48126        -4.87466
LJ          -5.68442       -0.728338         1.48908
LJ          -3.74051        -4.81141         4.40585
LJ           5.79302        -3.03098        0.885233
LJ           3.27696        -4.51714         2.46135
LJ          -5.24092        -4.40825         3.01408
LJ            4.2156       -0.923635         5.94572
LJ            2.1719         1.69446         1.53896
LJ           4.90286        0.903295       -0.725996
LJ            -4.354        0.867373        -4.63606
LJ           -4.8201         4.53503        -4.23644
LJ           2.56643         -3.9353        -4.88617
LJ          0.586129        -2.36464       -0.406475
LJ         -0.663071         1.72618        -6.19509
LJ          -2.96775         1.36785        -4.91016
LJ           2.53877        0.973684        -1.84724
LJ          -5.87009          3.2734         5.17477
LJ          -5.47969        -4.99825         3.64121
LJ           4.93257        -6.15433        -6.39176
LJ           5.58049       -0.106331        -5.70454
LJ           2.35212        -1.49862         2.89846
LJ           2.12638        -1.93218         4.94138
LJ           5.33014         4.65953        -3.33159
