108
#Comment!
LJ          -2.87456        -2.98877        -3.01235
LJ          -1.92909        -2.60925        -2.94133
LJ          -3.10306        -2.24502        -2.35981
LJ          -1.56484        -3.46144        -1.93513
LJ         -0.667361        -3.07793        -2.77725
LJ          0.791216        -2.23297        -3.45044
LJ          -1.39231          -2.219        -1.86652
LJ        -0.0583551        -2.98548        -2.08206
LJ           1.92816         -3.2582        -3.29936
LJ           1.48381        -1.93044        -2.88386
LJ          0.905067        -2.87713        -2.59048
LJ           1.76147        -3.22865        -2.09122
LJ          -3.51734        -1.11394         -2.7628
LJ          -1.76636        0.157943        -3.08929
LJ          -2.90757        0.571507        -1.77768
LJ          -2.23357        -1.53808        -1.82756
LJ         -0.815512       -0.742838        -2.83225
LJ         0.0864165       -0.555132        -3.42615
LJ          -1.20037        0.385364        -2.11635
LJ          0.227397       -0.992002        -2.18905
LJ          0.917683        -1.07425        -2.95801
LJ           1.60073        0.556725        -2.74111
LJ           1.21001        -0.28498        -1.72393
LJ           2.82494        -1.00516        -1.83234
LJ          -3.47684        0.920606        -3.43852
LJ          -2.78185          2.1592        -3.27317
LJ          -3.19101         1.56765        -2.32979
LJ          -2.21211          1.2505        -2.15357
LJ          -1.30829         1.14739         -3.1183
LJ         -0.493377         1.65335        -3.01636
LJ          -1.47199         2.27567        -2.56548
LJ         -0.470409          1.0987        -2.13686
LJ          0.815388        0.516787        -2.00094
LJ           1.49586         1.71637        -2.97015
LJ          0.699704         1.93523        -2.24357
LJ           1.60216         1.55083        -1.87002
LJ          -2.78684         -3.5716       -0.800032
LJ          -1.99685        -2.70633        -1.00233
LJ          -3.26395        -2.92183      0.00511058
LJ           -2.1359        -2.66287         0.08695
LJ         -0.905584        -2.92236       -0.968773
LJ          0.225909        -1.77142        -1.33961
LJ          -1.35696        -1.31074       -0.334141
LJ         0.0833607        -3.00127       -0.305369
LJ          0.365368        -2.81387        -1.24894
LJ           2.89679        -1.76311       -0.821619
LJ           1.08997        -1.89055       -0.452926
LJ           1.74524        -2.98318        0.150707
LJ          -3.24753       -0.264325        -1.30431
LJ          -1.98867        0.102177        -1.53852
LJ           -3.8777       0.0863213       -0.174576
LJ          -2.47114       -0.775164       -0.677333
LJ         -0.512922        -1.70871        -2.13512
LJ          0.090049         0.46003        -1.21942
LJ         -0.767863        -0.19707        0.189147
LJ         0.0255023        -1.17309        0.466543
LJ           1.13935        -1.40905         -1.2519
LJ            2.1422        0.179136        -1.37638
LJ          0.644736       -0.265813       -0.289225
LJ           1.66208        -1.02002      -0.0554304
LJ          -3.21358         1.36744       -0.952115
LJ          -1.76092         1.90918         -1.4895
LJ          -3.78871         2.36714       -0.336365
LJ          -2.19645        0.619931       -0.153296
LJ          -1.24089        0.546116       -0.577655
LJ          0.033481         1.72617        -1.54956
LJ         -0.882113         1.53543       -0.322017
LJ          0.161435         1.48013       -0.577417
LJ          0.865316         1.27537        -1.31131
LJ            1.5728          2.1084         -1.0138
LJ          0.786242         1.87328        0.253867
LJ           1.97171         1.59316        0.134006
LJ          -2.96179        -3.10173         1.07686
LJ          -2.26021        -1.98245         1.56782
LJ          -3.01496        -1.60774         2.11489
LJ           -2.3381        -3.53057         1.90018
LJ         -0.566719        -3.67183          1.5179
LJ         -0.103554         -2.6169         1.10152
LJ          -0.49839        -1.35817         2.17129
LJ           0.35161        -2.97212         1.96275
LJ          0.570604        -3.27172        0.677932
LJ           2.21014        -2.28604        0.896018
LJ           1.31952        -2.37146           1.867
LJ            2.0175        -3.41428         2.10452
LJ          -3.17031        -1.12606         1.16431
LJ          -2.63688      -0.0823172        0.960558
LJ          -2.84854        0.227957         2.14628
LJ          -2.47095       -0.648258         1.75955
LJ          -1.52226       -0.532126         1.01523
LJ         -0.250076       -0.636905         1.16806
LJ          -1.06154        -0.14935         1.89373
LJ          0.357933        -1.18278         2.83438
LJ           1.31592        -1.30874        0.881236
LJ           2.06172          0.4751         0.87442
LJ           1.58317        0.435093         2.02337
LJ           2.01381       -0.930803         1.59943
LJ          -3.12467         1.09601        0.810588
LJ          -2.17195         2.39901        0.996961
LJ          -2.79509         1.64573         2.63877
LJ          -1.72686         1.21963         1.62725
LJ         -0.709167        0.772527         1.56767
LJ         0.0499113         2.57098         1.06627
LJ         -0.840548         2.01888         2.53002
LJ         -0.320022        0.974899           2.553
LJ           1.43611         1.39793         1.10621
LJ           2.42022         1.78183         1.14889
LJ          0.954588         1.47526         1.93503
LJ           2.53929        0.981552          2.5461
