108
#Comment!
LJ         -0.889376        -5.90481        -1.24764
LJ          -4.12096        -5.32133         3.05471
LJ           4.19649        -2.97131          2.3082
LJ           3.52738          5.2448      -0.0782907
LJ           5.66335        -3.09874        -3.04239
LJ          -4.63251        -5.03634        -1.47027
LJ          -3.98019        -5.86249       -0.658819
LJ           3.47579        -1.24294         2.58811
LJ          -3.62453        -2.20997         4.75797
LJ           5.24732         1.85591         1.55977
LJ           1.93423        -5.62826         3.10353
LJ           3.17569        -2.63121       -0.369521
LJ          -2.28421         3.37578        -2.06201
LJ          -4.68508          1.1205        -5.71135
LJ           5.63741       -0.365875         4.42022
LJ          -1.75091        -6.02041         1.86251
LJ           1.57474       0.0660002         5.17361
LJ          -3.54843        -6.03381         2.98298
LJ          -4.72971         6.10331       -0.972351
LJ           2.58368         1.99692        -1.58385
LJ            2.4625        0.658825       -0.956916
LJ           3.71473        -6.20088         1.83607
LJ           3.83796         4.79076        -1.85415
LJ           3.88117         3.20484         4.85806
LJ          -5.54861        -2.55359        -2.56753
LJ          -4.18873        -1.74082       -0.856814
LJ          -3.19876        -3.48652         3.94394
LJ          -2.16814        -2.78742         -6.4509
LJ          -5.36086       -0.572436         3.27216
LJ           1.45203        -4.00101        -6.20715
LJ           1.94867        -1.37588       -0.966617
LJ          0.998843         -4.1053      -0.0563745
LJ           6.33294         5.11896         1.31686
LJ           4.58063         2.99144        -3.20266
LJ         -0.335896         -3.3422       -0.253566
LJ          -6.14991         5.47553         3.18776
LJ         -0.922495         -2.5307       -0.867257
LJ           -5.5947        0.767126         -1.8362
LJ           1.04846         1.50899        -4.39401
LJ          -3.24214       0.0151149        -1.24047
LJ           1.42348         1.17269         5.70613
LJ           4.18933        -4.42045        -2.76065
LJ          -2.18389        -6.04926         5.70565
LJ          -2.68427         3.70045         4.01957
LJ          -5.92099        0.661949        -1.18637
LJ          -3.70478        -5.06213         5.45386
LJ            2.7908        -6.29688         1.76153
LJ          -1.98151         1.57132         5.35555
LJ           5.75841        -4.47534        0.128171
LJ           2.42824         3.97243        -4.24025
LJ          -2.57652        -2.32423      -0.0563152
LJ          -3.17017         5.86395        -4.08657
LJ          -3.10909         1.92009        -3.34936
LJ           6.00634       -0.750104        -4.94276
LJ          -5.26644         -3.7884         4.11171
LJ           3.17332        -5.76222        -5.50028
LJ          -5.22544         1.75565        -3.21499
LJ           1.76998         4.86732         2.99939
LJ            -2.533       -0.307022          1.8887
LJ          0.874599         -2.7298         1.09288
LJ           5.51156         4.96541         2.38425
LJ          -4.07168         5.99907         2.52957
LJ          -6.41844         -3.4282         4.88829
LJ           4.11034      -0.0383153         2.96771
LJ           5.98333        -4.41612        -5.77425
LJ           3.47411         -2.8919        -3.95809
LJ           -3.5764         4.83437         2.49882
LJ           1.03492        -5.37368         1.17373
LJ          -5.13504         -5.5216        -3.86945
LJ          -3.04553         -3.0378          4.4361
LJ          -1.39992         5.42745        -2.91356
LJ           3.47005        -2.03325        0.444083
LJ          -2.40361         4.36967         4.51779
LJ          0.951184        -4.51165         5.23207
LJ           4.22797        -2.07455          2.7354
LJ          -4.08304        -1.59921         6.20368
LJ         -0.777339         1.17014       -0.576853
LJ           -4.7484         5.03675        -3.57672
LJ           1.40623        -3.94018       -0.827826
LJ           4.73928        0.599464         2.53552
LJ          -5.69227         1.86706         4.05061
LJ          0.849222        -2.43159         3.01054
LJ           -4.0138        -0.17297        -3.73491
LJ          -3.06971        -4.42757        -4.62382
LJ           6.07227          5.1141         4.07177
LJ           4.53835        -4.30584         1.52866
LJ           2.52293         3.80383         5.61581
LJ         -0.643124        -6.16871         4.06079
LJ          -3.91922         6.00553         2.41595
LJ           2.66397        -6.40797         -5.6844
LJ           4.53556         2.26786         5.71444
LJ           5.48266        -2.10633         3.06775
LJ           4.50561         4.77792         6.07909
LJ          0.945993         4.85016        -5.90524
LJ           1.27257        0.946472        -6.11746
LJ           3.92356         4.43233         1.56432
LJ           1.64941         3.02327        -1.44752
LJ         -0.753668          6.4321        -2.51666
LJ           1.98116         3.64119         4.51707
LJ          -2.82725         1.83728         5.78242
LJ           5.29252        -2.49507         3.56747
LJ           -5.2858         4.08088       -0.941285
LJ           1.39902         5.11136        -4.62317
LJ          -2.19602         2.25472         3.86003
LJ           4.03486       -0.366346         5.97311
LJ           1.76557         -1.9559          6.0634
LJ           -4.3494        -2.77946         4.46108
LJ          -1.40642         2.61451        -5.55097
