108
#Comment!
LJ           -1.2965         1.88451         -1.7972
LJ          -2.90923         3.50286         4.53462
LJ           1.99087         4.59869         -2.9483
LJ          -1.68565        -1.62569          5.1235
LJ         -0.773523         4.18507        -1.37662
LJ           6.22991          2.7233        -2.02917
LJ         -0.441734         3.79699         5.63452
LJ         -0.438842         3.19456         2.75867
LJ           1.23336         3.33579         1.41107
LJ           5.14204         6.12865         3.90876
LJ           5.80647         6.32781         1.05798
LJ          -3.57281        0.891228        0.127424
LJ          -1.10545        0.721335         1.09121
LJ         -0.832791        -5.36425        -4.48329
LJ          -5.86916        -6.42334        0.671425
LJ           5.59604        -4.93733       -0.281372
LJ           3.37631         1.62536       -0.319483
LJ          -2.99534        -3.81614         6.41484
LJ        -0.0705055         1.55071         1.63228
LJ          0.271045        -3.95307         4.43129
LJ          0.567098        0.474229         1.99718
LJ           5.66067         5.10465         5.26022
LJ          0.863076         6.35042          1.2719
LJ           5.28356         1.04392        -6.30865
LJ           2.21329       -0.269003        -3.02221
LJ           3.69709        -3.37214        -5.12751
LJ           4.78098        -3.45619          5.9687
LJ           -1.3081         2.61221         -6.1675
LJ          -1.10993         3.91931        0.521125
LJ          -4.10588        -3.44749        -3.47431
LJ           4.81581        -4.28987         4.38486
LJ           1.93907         4.07014        -2.68774
LJ          -1.02522        -4.75504         5.67403
LJ           3.97245         3.72505         -1.0743
LJ            5.6739         4.74314         2.64273
LJ           2.00765         3.98627        -3.22793
LJ           -6.0423        -4.98745       -0.663419
LJ           4.01539        0.443777        -4.10825
LJ           4.45835          5.4066       -0.107258
LJ           2.04788         5.84258         1.05484
LJ           5.46907         1.86363        -2.62715
LJ           6.45135        -4.28484         2.38006
LJ           2.59998         3.00874         3.05576
LJ           5.35658         1.12337         3.23786
LJ           3.19324        -4.21821         2.63574
LJ           1.82242       -0.657361           1.379
LJ          0.344806        -2.98448        -5.40292
LJ          -4.18837        -5.31803         -5.1958
LJ          -3.56238        -4.82106         1.44092
LJ           2.02539       -0.785313        -4.02494
LJ           5.04816         3.90746        -3.25702
LJ          -1.14166         5.26334         1.51561
LJ           5.19102         5.65686         3.86832
LJ           3.46296        0.851886       -0.554455
LJ          -5.33207          6.1967        -4.90749
LJ          -6.15472         2.98682        -4.18003
LJ           4.16176         3.18883        -1.05268
LJ          -5.15875         4.04721        -2.65447
LJ          -6.27467        -1.25979         3.38244
LJ          -5.58172        -5.16747        -2.79373
LJ           4.85303         -4.7452         4.20655
LJ          -4.65463         5.47848        -1.42535
LJ          -3.46564           3.798         4.56082
LJ          -1.72702        -1.32418        -5.62665
LJ          -5.07115        -2.59089         2.47314
LJ           4.74354        -3.74517        0.406031
LJ           3.76825         3.01755        -1.14283
LJ          -4.82196         3.66263        -4.70405
LJ          -5.22476         3.17976         -2.0857
LJ          -1.76541        -5.97136           5.726
LJ           3.15714        -2.80697        -3.09456
LJ           -5.6737         1.47295        -4.18571
LJ          -2.02649         3.47916         1.59915
LJ          -2.63525         1.27115       -0.393558
LJ           4.60412         5.27843        -5.33934
LJ          -2.47844        -4.04392       -0.720866
LJ           1.50198         2.80647        -5.89279
LJ          -3.11137        -5.94552        -5.24401
LJ           2.12796        0.458705        -5.23982
LJ          -2.20903        0.604289        -4.99668
LJ          -2.05622        -4.47888         1.40323
LJ           2.32969        -1.71148        -3.01127
LJ          -0.80796        -4.99694        -3.73259
LJ           2.37634         1.19395         -1.1456
LJ           2.35458         2.43217        -6.10319
LJ           -3.2475         -6.0283         3.45537
LJ            3.3172        -3.45263        -4.25834
LJ         -0.565324         1.65551        -6.18514
LJ          -1.28441         3.68563       -0.404086
LJ          -1.76564         5.32824       -0.466529
LJ          -4.73493          2.0052        -1.74839
LJ          -5.33148        -2.29198        -1.07915
LJ           -4.4025         4.92704         3.74136
LJ           4.14621        0.537408        -1.78522
LJ           6.14813        -4.73433         4.89454
LJ          0.534705         1.41129        0.824069
LJ           2.35415        0.930072         4.46273
LJ          -5.79897        -4.38619          2.4508
LJ           2.98363        -1.01969        -4.55025
LJ          0.271396        -6.38075       -0.252522
LJ          -3.18552         6.28177         1.61482
LJ          -3.46588        -1.80344        -2.29033
LJ          -5.40981        -2.67509        0.211373
LJ         -0.541152         3.53411        -5.84732
LJ         0.0687997         5.90417        -3.59209
LJ           1.25215        -6.28693        -3.05207
LJ           2.62464         1.90609         5.85916
LJ           4.31079      -0.0669543        -6.29046
