108
#Comment!
LJ          0.388909         3.43695        -3.53438
LJ           3.24678         3.78967        -1.27762
LJ         -0.682729         3.94109        -6.43406
LJ             -5.59         2.73841       -0.114078
LJ         -0.245837       -0.551296        -3.28589
LJ           0.72249       -0.623936        -5.12657
LJ           3.37826         3.17787        -3.69262
LJ         -0.605305         5.56647        -4.86464
LJ          -3.58555      -0.0599083         5.86018
LJ           2.56176        -4.34701         2.16443
LJ           4.03321        -3.02074        -3.84828
LJ           2.45657        -6.17693         3.32581
LJ           2.06676         1.11226         3.34411
LJ          -1.82757         2.39425         2.70907
LJ           1.48136       -0.949382        -3.67448
LJ           2.29404         -4.2979         6.12591
LJ          -1.41322        -1.67607         2.36229
LJ           5.05613        -4.18092        -1.51694
LJ          -4.91543        -2.03949         1.02541
LJ          -1.99303        -3.23063        0.600524
LJ          -2.25027        -1.48595         3.29011
LJ           2.30894          2.0852         6.29348
LJ           2.70586        0.130432        0.270299
LJ         -0.838271        -1.36951        -0.25763
LJ           3.41475        -4.16019        -5.56904
LJ          0.924889        -3.54111          2.4519
LJ           5.28026         3.27053          5.6471
LJ           2.21882        -1.68998        0.399398
LJ          -1.73238        -3.88972         4.87411
LJ          -2.51274        -3.19915        -1.49607
LJ          -5.74836         1.97605        -2.42867
LJ           4.39133       -0.783069        -5.07833
LJ         -0.999142        -1.19304         2.39454
LJ           2.38199        -4.88194         2.74757
LJ          -3.96108         4.00956          -2.808
LJ          -1.36149        -2.15323          4.3947
LJ           1.05409         5.34529         5.07275
LJ           6.01997          1.1435         2.55505
LJ           4.88038        0.562911         4.71837
LJ          -4.54092        0.828635       -0.804718
LJ           3.30494         5.73193         4.61658
LJ           1.32486         3.20936         3.50096
LJ          -1.94436         6.23716         1.08741
LJ           2.71285         4.09391         1.51915
LJ          -1.41225         5.92647        0.189426
LJ          -5.70602        0.767807         1.41954
LJ          -2.03296         3.84549        0.697468
LJ           2.05544       -0.341436        -3.96079
LJ          -2.23102       -0.888891        -3.93096
LJ           -4.4027         2.97609        0.283581
LJ         -0.495165        0.199273        -1.95966
LJ           3.36492       -0.910539         4.16342
LJ          -3.46576         1.98849       -0.170763
LJ          -1.85148        -5.47056         3.76877
LJ           1.29471         4.94164        -5.05318
LJ           4.75573         4.74838         5.03384
LJ           1.33409        0.346653        -2.99717
LJ           2.90417      -0.0595883         5.40478
LJ           5.64479        0.212128        -1.79205
LJ          -5.20843       0.0643135         3.06572
LJ           4.00102          2.8412        0.487002
LJ          -2.30935        -3.81611        -3.64186
LJ           6.29016        0.650838       -0.767829
LJ            4.1982        -2.03157         4.52179
LJ            3.2424          2.2651         6.28135
LJ          -3.98094         5.57587         2.92928
LJ          -5.71689         1.63025       -0.503904
LJ          -5.26575         5.55132         5.37893
LJ          -4.22419        -1.91976         1.07113
LJ           2.04699         1.93385         3.18968
LJ          0.763085          0.6132        -2.62816
LJ            0.5997        -4.38861        -6.25429
LJ           1.85034        0.933871        -1.04603
LJ           3.62792         -4.2485        -4.54016
LJ          -5.07929        -6.08809         5.12966
LJ           1.13867        -0.30556        -0.33188
LJ         -0.168008        -5.25766         2.78527
LJ           6.00035         3.25732         1.87503
LJ          -5.86154        -6.26299         4.45615
LJ          -1.91564        -0.84209        -2.81737
LJ        0.00416318        -5.01029         1.39516
LJ           6.02915        -1.84187        -3.03898
LJ          -3.71035         2.64308        -2.10218
LJ         -0.467373         1.69891        -4.44806
LJ           -4.2284        0.363587        0.635846
LJ         -0.226268         -1.7638        0.876945
LJ         -0.912374         4.20244       -0.418885
LJ          -0.24912        -1.76544        -1.47127
LJ           1.49895        -2.76976         2.28104
LJ          -5.78446        -1.44746        -3.17121
LJ           5.19551        -2.42453        -1.63229
LJ          -2.34242         5.34436        -1.21647
LJ           5.02151        -5.48746         3.87184
LJ           1.71699          2.5095        -1.56814
LJ           1.16535         4.01858         -6.2185
LJ          -4.55024         3.26405        -4.24869
LJ          -5.79113        -4.90604            2.99
LJ           5.91448        -1.61547       -0.818438
LJ          -6.39143        -0.88003         2.90921
LJ           1.96784         1.37727        -4.38985
LJ           1.80628        -4.24211         1.15967
LJ          -5.23287        -1.99159         1.88217
LJ          -5.13934        -3.92155        -1.65922
LJ           2.86687        -5.58512         5.69351
LJ         -0.619035         5.21932         5.26947
LJ          0.499535         1.43816        -4.52096
LJ         -0.882632       -0.537282        -6.38308
LJ           3.35683        -3.47662           1.765
