108
#Comment!
LJ           1.41671       0.0109047        -3.21389
LJ           4.81057        -1.24449        0.922589
LJ           2.02776       -0.940813         1.38455
LJ           5.05295         3.96579         1.89993
LJ          -2.77805        -4.28407         5.16075
LJ           3.21158         5.96631        0.739323
LJ          -2.12398        -1.26302         4.72669
LJ           4.91618        -1.89478        -3.45789
LJ          0.169059         6.23971         1.21455
LJ          -4.23721       0.0759728        -5.73236
LJ          -5.06513       -0.881426        -5.66559
LJ          -3.90985         1.27106        -1.11611
LJ          0.746548         3.83524        -1.51453
LJ          -4.96569         1.38289        0.940841
LJ           -2.1823        0.740431        -5.70425
LJ         -0.878343        -4.28351         1.15858
LJ           1.08642         -5.0298          5.9391
LJ          -1.31629         2.19639        -4.33625
LJ          -3.96852        -2.44439         5.16155
LJ          -3.34367        0.711957        -4.56082
LJ          -1.97186         0.56182         2.58118
LJ           4.52271         6.07624         1.61102
LJ          -5.62876        0.746771        -4.14044
LJ           1.25494        -5.25833         3.57409
LJ          -2.02797         -4.0683         1.28686
LJ           5.44449        -4.81809         -3.4487
LJ          -5.24568         3.89805        -2.56408
LJ          -6.28814        -1.57544        -3.80119
LJ           1.25988        -4.60186        0.396613
LJ           1.90508        -0.20929         5.42616
LJ            2.0171         3.83352        -3.39151
LJ           4.37815        -5.99024       -0.534683
LJ           6.07011        -2.90354         4.07669
LJ           3.43055        -2.00158       -0.664774
LJ           4.93624         5.28806        0.882404
LJ        -0.0695565       -0.826958         6.01539
LJ          -1.26683         5.85379         4.01078
LJ          -4.20906        -0.12222         2.03332
LJ          -2.92942        -1.35807          6.2563
LJ          -6.37352         4.64922       -0.129086
LJ            1.8393        -3.83752        -3.95004
LJ          -2.38912        -6.00476          4.9519
LJ          0.601578        -4.45213        -3.91144
LJ          -5.28268         0.49929         1.90244
LJ          -4.86519         -6.0551        -5.05961
LJ           5.04439         2.39899         1.07251
LJ          -5.59652        -2.90922        0.246053
LJ          -2.24452         1.08698         6.23319
LJ          0.358886       -0.309685         5.10756
LJ            6.1672        -2.34608        -2.70901
LJ         -0.729252        -3.98248       -0.595043
LJ          -1.67299        -4.59983        -2.49923
LJ          -1.39971         1.73158        -1.91859
LJ           3.19997          5.6296        -1.04883
LJ           3.68372        -6.16534        -3.11265
LJ           6.39791         4.49571         5.17548
LJ           1.54533          3.6023        -4.64459
LJ          -3.72509         5.77069         -1.2661
LJ             1.041        -2.87071        0.357946
LJ           6.04382         4.14132        -1.02293
LJ          0.642443        0.101946         4.19619
LJ          -3.53433          4.0935          4.3069
LJ          -5.61819         5.33795         5.67123
LJ           3.41164         6.19532         2.04198
LJ           6.24632        -3.94848         3.61547
LJ           3.44272        -4.84815        -3.32102
LJ           4.39015         -1.6867        -2.10931
LJ          0.810076         1.97721        -1.85386
LJ           5.25477        -1.21905        -2.61026
LJ         0.0328396         4.16234         3.91006
LJ          -3.17051      -0.0814515         1.41406
LJ          -5.19854       -0.911377         4.73384
LJ          -6.38399        -1.92773       -0.694132
LJ          0.468689        -4.69707        -5.14761
LJ          -3.26599       -0.986057        -3.88989
LJ           2.75095         1.41452        -3.63607
LJ          -5.88362        -5.73085        -2.86683
LJ         -0.739693        -1.42898         5.05414
LJ          -3.86848        -6.16032        -4.81134
LJ          -1.04492        -3.54214        -5.36298
LJ         -0.880082          -1.673        -2.73467
LJ           6.11802       -0.851385        -3.17296
LJ           3.11875         2.03167        -2.85234
LJ          -3.37371       -0.361063         4.53832
LJ          -1.60808         3.98525         5.21654
LJ          -3.59291        -0.50087       -0.735563
LJ          -2.56691       -0.828692         2.08257
LJ           5.92162         1.03764         4.38595
LJ           4.15122       -0.417512        -1.48692
LJ         0.0643729         4.14778        -2.56926
LJ           -4.4455         3.38592         4.74233
LJ           5.30225      -0.0521532        -2.82629
LJ         -0.605702         4.94258         6.27303
LJ           2.34539         1.88601         2.88221
LJ          -3.14866        -5.81788        -5.60975
LJ           4.98728        -1.20706        -1.40806
LJ          -1.24569        -0.75984         3.94744
LJ         -0.096459        -2.89357        0.844226
LJ         -0.183948        -6.41154         5.65297
LJ           4.11715         3.99698       -0.812032
LJ          -3.58642        0.735246         2.11878
LJ           3.90958       0.0928252        0.578191
LJ           4.28897         1.31377        -1.99636
LJ          -2.98747       -0.446279        0.436087
LJ          -5.55976         3.97353        0.434254
LJ           4.29917         2.17964         2.74679
LJ          0.186035        -5.22986        -1.41449
LJ          -6.02938            1.11        -5.24379
