108
#Comment!
LJ           5.43308         6.04166        -3.99636
LJ           -3.9215        0.226139        -3.82676
LJ            -3.686        -1.61198       -0.760559
LJ           1.31259        -6.29218         1.87357
LJ         -0.513155        -1.91014        -3.61068
LJ           4.01403        -5.41457         4.55961
LJ          -1.20052        -2.47023        0.548813
LJ         -0.270081       -0.721776        -3.10936
LJ           6.41231        -1.93315        -5.66656
LJ           1.41608          -2.841        -3.53313
LJ           2.98573        -6.29904        -5.97357
LJ           4.14202        -4.82026         -1.6423
LJ          -4.93095       -0.538197       -0.580059
LJ          -1.14603         3.30328         -4.0468
LJ          -1.68176         1.68724        -1.61716
LJ          -3.97957          6.3613     -0.00687053
LJ          0.687521        -1.64753        -3.79694
LJ          0.622647        -1.25279        -5.52454
LJ          -1.71434       -0.608057        -2.04829
LJ           1.92002       -0.113774       -0.988243
LJ          0.549299        -3.23114        -4.18218
LJ           1.66166          -1.449        -5.42986
LJ           3.44207         2.02454         1.42778
LJ           5.87333       -0.154709         1.82492
LJ          -6.03395       -0.876428        -5.77265
LJ          -4.46319       -0.474038        -4.95471
LJ          -4.49102        0.547358        -5.65333
LJ          -1.49868         2.25173        -5.50128
LJ          -6.09455         1.49514         5.83813
LJ          -5.89063         3.25052          5.0106
LJ          -1.30904         3.00621        -2.86707
LJ           1.74958        -1.36544        -4.35418
LJ           3.63321       -0.145664        -3.92842
LJ          0.099373         2.96855        -4.83559
LJ          0.690244        -5.85355        -3.78446
LJ           3.46562        0.353144        -2.14873
LJ          -1.61159         5.74477         2.35294
LJ         -0.295902        -1.93378       -0.701936
LJ          -2.13648         5.12133         1.10625
LJ           -2.9099        -0.13892      0.00575925
LJ           1.36521        -2.25053       -0.634387
LJ          -3.05801        -1.74707        -4.37851
LJ          -4.83417        -5.01024        0.962974
LJ         -0.517753        -3.06338      -0.0921207
LJ          0.393667        -2.50155        -1.37231
LJ          -5.94094        0.774467         1.49897
LJ           2.43531         -0.6492        -2.13726
LJ          -2.11553        -2.26485         1.46144
LJ          -5.61807        -2.11036        -3.50849
LJ          -4.97526        0.392389        -1.23643
LJ          -6.26733         2.12083         1.66737
LJ           5.22154         1.11184         2.88894
LJ           2.19133         5.09696        -5.60046
LJ          -2.87821         3.13807         -0.4034
LJ         -0.446357         2.27445        -1.88269
LJ         -0.160404        -2.36038         3.94687
LJ          -2.58191         -1.7192          4.6883
LJ            4.6397         0.94261         -2.5575
LJ          -2.80057         -3.1233       0.0632616
LJ          -3.18577       -0.380901        -1.04752
LJ          -4.28113          4.9404         3.31739
LJ          -2.10536         3.80898        -4.30932
LJ           4.03465        -6.05758       -0.476133
LJ          -4.06713        0.446815       -0.339496
LJ          -3.19236         1.68612        0.875176
LJ        -0.0174595         4.52501         1.00822
LJ          -2.19423        -6.23631       -0.927639
LJ            1.2267         1.05249        0.480805
LJ           2.07601       -0.935651        0.405786
LJ          0.731144         5.04273         1.77613
LJ         -0.626715        0.305042         1.51945
LJ           2.40035        -5.75965       -0.387657
LJ         -0.979786        -1.33368        0.691244
LJ           -1.3059       -0.506739         1.44541
LJ          -3.70669          1.7919         3.93285
LJ          -4.11385         -5.6683        0.457311
LJ           4.43754        -5.93786         6.14725
LJ          -2.02676        -3.62081        0.882858
LJ          0.982493        -3.56914         5.21612
LJ          0.937619        -3.05151        0.713919
LJ          0.606544         4.98147         3.36032
LJ           3.74681       -0.805781        -2.37197
LJ            1.9423        -3.22477       -0.482156
LJ          0.910606        -3.42736         1.88952
LJ          -4.64446        -3.84142        -1.11069
LJ          -4.14824         1.34438        0.308895
LJ         -0.086823         1.10742        0.671571
LJ          -1.76766        -1.18894       -0.531848
LJ          -5.83249        -0.12221      -0.0257002
LJ          -0.48883        -1.16923         3.89426
LJ          -1.38248         -2.1042         2.72103
LJ           4.33185       -0.903053        -4.99043
LJ          0.752517       -0.316002       -0.973046
LJ           3.11416         2.11436        -1.53585
LJ           4.05939         3.02241        0.927185
LJ           2.77777       -0.174278        0.767495
LJ          -4.96129        0.127831        0.568532
LJ          -3.23778         2.11667        -0.25827
LJ         -0.223519         -1.9104        -4.96468
LJ          -3.35349         2.57284        -1.28149
LJ          -1.30215        0.563758         2.41588
LJ           1.61371          6.3049        0.499716
LJ          0.436136       -0.165273         3.81341
LJ        -0.0342596        0.229864         2.49455
LJ           3.65112        0.339064         1.46083
LJ           2.55999         0.64373          1.7965
LJ           2.66955         1.08695        -4.16953
LJ           3.64071        0.602266         2.47373
