108
#Comment!
LJ          -2.82785         4.95024         4.44852
LJ          -0.79837        -2.42538        -3.94687
LJ           3.39838        -2.02959        -4.67867
LJ          0.761153         4.91171        0.334321
LJ          -2.31817         4.21969        -4.34434
LJ           3.21015        -5.83453        -3.77883
LJ           1.43941         1.39338        -1.19818
LJ            1.9984        -2.62019        -4.90185
LJ          0.390742         6.31242          -6.006
LJ          -5.70297         1.96089         6.00343
LJ          -3.49632         1.35557         5.36576
LJ           -4.6395         3.26853         2.62802
LJ          -4.67621        -5.77059        -5.90415
LJ           1.51446         2.90062         1.11401
LJ          0.749614        -2.67112        -2.06627
LJ        -0.0589132        -5.36239       -0.456181
LJ          -5.43723        0.738592         3.68951
LJ           6.30514        -6.27134        -1.45163
LJ           4.42905         5.48849         3.44379
LJ         -0.585261         2.03836        -5.11229
LJ           4.33295        -4.47751         1.43386
LJ          0.550488        -1.68363        -4.82588
LJ          -1.72228        -3.11015         4.64146
LJ          0.918612         4.00647        0.623484
LJ           5.56696          2.8594        -2.05153
LJ           3.59127         1.60915       0.0505475
LJ           2.76462       -0.575304         3.54681
LJ           6.06867        -3.03557       -0.219341
LJ          -1.72451         2.44277        -1.42382
LJ           4.26335         1.86421         5.69441
LJ           2.52324         4.45574         2.61475
LJ         -0.729853        -1.63131         -5.6348
LJ          -6.22911        -1.61756        -2.15634
LJ          -3.54258         1.76353        -5.60368
LJ           -4.0689        0.863808         2.73359
LJ          -1.42079        -5.67607        -6.02635
LJ          -4.22706         4.83394        -2.76638
LJ           5.84373        -3.26529         5.06833
LJ          -4.65899        -5.14965        -6.25427
LJ          -2.77328       -0.445618         5.82366
LJ           3.30412        0.380184        -1.30922
LJ           5.53836        -6.36658         4.22015
LJ            6.0206        -5.65019        0.516615
LJ          -5.26529        -5.34359        -5.95153
LJ           2.98584        -3.95655        0.707732
LJ         -0.455873          6.2477         1.66124
LJ           3.50269       -0.602477        -3.24832
LJ           4.82328        -5.74656        -3.65681
LJ           4.75871         4.35428         4.63609
LJ          -1.17416         2.26838          2.4148
LJ          -3.53443        -6.13569        -3.84062
LJ         -0.565558        -2.93942        -3.11551
LJ          -2.03446         4.07803        -1.88976
LJ          -4.27998        -2.30928        -4.81071
LJ          0.913157         6.18826       -0.982087
LJ          -5.26141        0.293498         5.21056
LJ            1.2499         2.21372        -6.34665
LJ          -2.43925        -1.61052         5.63484
LJ          -2.16654       0.0178747        -3.61083
LJ           1.80673         2.55399        0.292265
LJ          -1.40156          2.6896        0.439674
LJ           4.05305         4.73929         1.90853
LJ           1.22148        -2.41065         3.16257
LJ           3.51049        -2.33745        -4.37556
LJ           3.10813         1.96784        -3.93572
LJ         -0.482024        -1.49474        -5.64496
LJ          -5.37113         5.80081         3.57594
LJ           -3.1448          1.8447         1.97421
LJ             5.828         2.23011        -4.55404
LJ          -5.27392        -3.26453         5.92523
LJ           -3.9228         5.22481         5.89919
LJ          -4.72707        0.160394         4.69485
LJ          -2.72908        -2.02456         1.09522
LJ           5.21195         5.15828         3.91062
LJ          -2.06413       -0.270994         1.76304
LJ          -1.36556        -3.62886          2.1472
LJ           6.11516        0.289948        -3.27491
LJ          -3.97103         2.97077         3.68065
LJ           5.56467        -2.26394         6.30824
LJ           1.99823         4.43589         4.23354
LJ             -1.76         4.62937        -5.81275
LJ           5.64412        -5.09472        -0.39011
LJ        -0.0668369         2.86469         2.73795
LJ          -5.49218        -4.46004         3.47754
LJ          -2.65885         5.19536        0.204609
LJ           4.75479         5.69764        -1.24947
LJ           3.14428       -0.115463         6.26945
LJ           1.19363        -4.38853         3.97044
LJ        -0.0467265       -0.644435        -1.98992
LJ           5.17266         1.94185        -4.76103
LJ           4.88325        -5.33589         2.17571
LJ         -0.965712        -5.38785         -2.8367
LJ           2.86324        -2.87992        -3.24466
LJ          -4.80678         4.05797        -2.63238
LJ          -4.16238         4.46924         1.05433
LJ          0.254227        -5.87683        -1.49249
LJ          -4.77575        -5.47652         4.03246
LJ           2.82672        -1.23461         -4.7428
LJ           5.70758         5.91989          1.7263
LJ          -4.73068        -2.87941         4.87264
LJ            -1.164        -3.55047         5.53109
LJ           5.84784        -4.57022         4.79044
LJ          -1.07053       -0.797715        -3.89079
LJ          -1.21772        -5.33326        -5.58151
LJ          -1.14228        -3.40925         4.13815
LJ           6.17693         3.66516          3.0581
LJ          -2.94917         2.23895        -1.16518
LJ           2.04555         -4.2049        -1.74586
