108
#Comment!
LJ           3.33175         4.43507        -4.52299
LJ           2.18132         5.25027        0.653502
LJ           1.71811         4.83763        -0.25297
LJ           2.23119        -0.43433        -4.07343
LJ           5.23692         1.18308        -6.11021
LJ           4.87795         5.79497       -0.899014
LJ           5.67649         3.01514       -0.295999
LJ          -1.82925        -3.21825         3.32907
LJ           5.72489         1.92678          1.8307
LJ          0.828944        -1.24687         1.06664
LJ          -3.19498        -6.08657        0.778569
LJ          0.642116        -1.16605         2.44624
LJ          -5.20789         4.58926        -6.20457
LJ           4.26487       -0.332768        -1.19512
LJ          -5.20248         5.11572        -1.45038
LJ           4.99083         2.02693        -0.88603
LJ          -3.28317         5.09104         1.63289
LJ          0.460645         4.10435        -3.36541
LJ            4.3378       -0.737928         5.36704
LJ          0.495734        -3.14916        -5.91118
LJ          -3.25128         3.32374         1.96844
LJ           5.07859        0.357588         4.83334
LJ          -3.20985        0.621053         2.96354
LJ          -5.89178        -6.14604         2.98915
LJ           6.18293         3.15475        -6.34591
LJ           4.98817         0.83514         5.87232
LJ          -3.38436        -1.42861         3.11169
LJ          -4.82769        -6.37261         1.18517
LJ          -2.10345        -6.20537        -1.41472
LJ          -2.83695         6.29809         1.83474
LJ          -5.17412        -1.71579          2.3338
LJ           1.74629        -3.47616        -1.76734
LJ          -5.93535         -2.3264        -3.23861
LJ         -0.762723        -1.21072         2.49948
LJ           4.24486         6.36085         -2.5855
LJ         -0.257761        -4.12622        -4.14768
LJ           4.48826         -3.8899         -5.5881
LJ          -1.61432         5.64045         3.19935
LJ          -5.81459          4.5196        -5.96084
LJ           4.14748         4.75108         3.14501
LJ           5.02167         4.72008         5.62044
LJ           3.59839        -1.67671         4.13321
LJ          -5.27232        -1.94523         -2.0401
LJ          0.735736        -1.12843        -1.37739
LJ          -2.66265        -3.77521         1.51093
LJ          0.350113         2.81161        0.162457
LJ           -3.9987         1.06764        -4.24011
LJ          -2.68253         1.42495        -3.39956
LJ          -0.34095        0.990968        -2.15808
LJ           1.10788       -0.269466        -3.83911
LJ          -2.52141        0.981537        -5.63667
LJ          0.778242        -4.35087        -3.76517
LJ           5.20636         3.66312         -2.4328
LJ          -1.73653         1.67059        -2.49517
LJ            3.7856        -2.55662        -6.37719
LJ          -1.13719        -5.53101          3.9298
LJ          0.620278        -5.87633        -4.52087
LJ            2.0661        -4.17861        -1.66537
LJ          0.956858         3.23479        -6.40512
LJ          -1.45866       -0.566484        -5.24143
LJ          -5.85963         2.13291         5.26754
LJ           2.16132         5.21264         6.43957
LJ           6.07073         2.17832        -5.44192
LJ          -2.72865        -6.18816          2.3857
LJ           4.58413         4.38747         1.72027
LJ           -3.0208        0.473256        -3.02072
LJ         -0.109173         4.36401         2.20554
LJ           1.44012         -2.5705        0.015137
LJ          -1.53207         1.48665           -5.04
LJ          -4.06459         2.99776        -5.74236
LJ          -1.56047         -5.3864        -1.63606
LJ          -5.50812        -5.33499         4.07173
LJ           1.22506         6.38189         2.92598
LJ          -4.72902        -6.02036        -5.12029
LJ           1.45249         3.52701        -2.96362
LJ         -0.991163       -0.871681        0.436725
LJ          -4.68897          0.8521         1.33617
LJ         -0.263672        -2.10449        0.169513
LJ          -1.75632        0.194393        -4.05532
LJ           2.04381         3.69095         4.60047
LJ           1.74185        0.910763         4.97505
LJ          -4.34549      -0.0946986         1.34616
LJ       -0.00483935         2.46244         5.80455
LJ           3.56217         4.18446        -1.19519
LJ          -1.46547        -1.02476       -0.785839
LJ         -0.572814         5.04762         5.75076
LJ          -4.06526         -6.1935         2.31304
LJ           2.10005       -0.474637        -5.95495
LJ          -4.93777        -1.29046        -2.70232
LJ          0.694953        -3.43731         4.45405
LJ           5.20608         3.97912         1.21158
LJ          0.469935         4.89027        -5.15491
LJ          -2.78949        -5.23143         4.47787
LJ            5.6466         5.56482          1.1682
LJ           5.76054        -1.54314          4.1943
LJ          -4.95244         6.28478         6.08215
LJ         -0.160695       -0.516425         2.99537
LJ           5.28737        0.292892        -2.35022
LJ           6.38954        -1.86257          3.2439
LJ            6.0842         1.90826        -5.22982
LJ          -5.63283         1.40413        -6.09078
LJ          -4.46717         4.35012         5.12039
LJ           5.93957         5.83306        -3.25737
LJ           6.20973        0.176763        -6.34834
LJ          -3.14517         4.09041        -5.07943
LJ           -5.1426        -6.08049          6.3558
LJ           4.59349        -6.26868        -1.02571
LJ           2.66238       -0.932277        -5.63968
