108
#Comment!
LJ           1.27571      -0.0232408        -3.21138
LJ           4.75295         -1.2442         1.22559
LJ           2.17212       -0.847822         1.33755
LJ           5.02662         3.82389          1.7333
LJ          -2.93006         -4.4214         5.41366
LJ           3.28855         5.90855        0.781771
LJ          -2.23115        -1.27642         4.53142
LJ           4.84816        -1.88582        -3.49374
LJ         -0.125875         5.85599         1.30825
LJ          -4.00877        0.201528        -5.77662
LJ          -4.83961       -0.883092        -5.55768
LJ          -3.85728         1.51784       -0.939817
LJ          0.775244         4.12035        -1.34946
LJ           -4.7255          1.0654        0.903042
LJ           -2.2638        0.769469        -5.62125
LJ           -1.0556        -4.08277         1.40571
LJ          0.919442        -4.91186         5.96175
LJ           -1.2569         2.51861        -4.42274
LJ          -3.81807        -2.51937         5.35231
LJ          -3.43724         1.19644        -4.68796
LJ          -1.95896        0.791636         2.53208
LJ           4.51993         5.93422         1.67081
LJ          -5.77219         0.79582        -4.33343
LJ            1.2394        -5.15234         3.51041
LJ          -2.06614          -3.894         1.07047
LJ           5.50601        -5.02185        -3.21565
LJ          -5.30792         4.09442        -2.42591
LJ          -6.21896         -1.4206        -3.88831
LJ           1.20721        -4.88916        0.487666
LJ           1.94373       -0.147701         5.19563
LJ           1.95215         3.87596         -3.4547
LJ           4.25284        -6.13825       -0.398599
LJ           5.99941        -2.65572         4.13935
LJ           3.37657        -2.15427       -0.732605
LJ           5.06806         5.31381        0.995868
LJ         -0.254144       -0.901781         5.90678
LJ          -1.61076         5.87713         4.13484
LJ          -4.22056       -0.237384         1.96014
LJ          -2.69238        -1.31039          6.1928
LJ          -6.19974         4.55542       -0.019268
LJ           2.25018        -3.57959        -3.67076
LJ          -2.03103        -5.81021         4.82917
LJ          0.684831        -4.29062         -3.4341
LJ          -5.17615        0.508512         2.09859
LJ          -5.26058        -6.39206        -5.30437
LJ           4.96941         2.20695         1.15196
LJ           -5.5052        -2.98695     -0.00603874
LJ          -2.35051        0.956419         6.10253
LJ          0.537948       -0.556366         5.25721
LJ           6.12875         -2.0895        -2.45736
LJ         -0.929276        -3.90502       -0.514826
LJ          -1.74732        -4.65776        -2.78309
LJ          -1.61214         2.11377         -1.9867
LJ           3.18973         5.48559        -1.02692
LJ           3.50972        -6.37078        -2.98848
LJ          -6.22699         4.53041          5.2249
LJ           1.85864         3.52831         -4.5825
LJ          -3.82311         5.69532        -1.35284
LJ           1.15125        -3.04143        0.118186
LJ           6.17232         4.44862         -1.0852
LJ          0.373092        0.191751         4.39708
LJ          -3.58696         3.96575         4.13642
LJ          -5.49068         5.51886         5.68154
LJ           3.39699         6.29673         1.75872
LJ           6.20999        -4.26927         3.43505
LJ             3.409         -4.9361        -3.14108
LJ           4.23607        -1.76976        -2.14234
LJ          0.880381         2.07266        -2.11555
LJ           5.11239         -1.2533        -2.67323
LJ          0.244744         4.10056         3.78332
LJ          -2.89538       0.0299281         1.42159
LJ            -5.064       -0.974956         4.47078
LJ           -6.3635        -2.12741       -0.855574
LJ          0.210438        -4.53195        -5.29747
LJ          -3.40484        -1.22421         -3.8723
LJ           2.66482         1.01453        -3.35199
LJ          -6.16356        -6.22749        -3.25676
LJ         -0.851999        -1.34378         5.01716
LJ          -4.02681        -6.19106        -4.74075
LJ          -1.26402        -3.71619        -5.17683
LJ         -0.676356        -1.50546        -2.91725
LJ           5.85351       -0.894828        -3.27435
LJ            3.1201         1.73156        -2.60703
LJ          -3.26694       -0.410338         4.73138
LJ           -1.3444         4.05606         5.34311
LJ          -3.49059       -0.485451       -0.602511
LJ          -2.43932       -0.668656         2.11972
LJ           6.12055         1.34142         4.60382
LJ           4.33586       -0.579022        -1.66261
LJ          0.259842         4.30111        -2.47179
LJ           -4.3767         3.53985         4.58556
LJ           5.47467       0.0563111        -2.83848
LJ          -1.05565          4.9649        -6.41213
LJ           2.29279         1.85446         2.66876
LJ          -3.26138        -5.82429        -5.37829
LJ           4.97076        -1.37345        -1.33325
LJ          -1.19354       -0.967274         4.04614
LJ        -0.0695245        -3.09335         1.19699
LJ         -0.210407         -6.2181         5.84614
LJ           4.58022         4.19547       -0.912879
LJ          -3.65232        0.728543          1.8387
LJ           3.76199        0.165475        0.469345
LJ            4.2941         1.30601         -2.1997
LJ           -2.8282       -0.406397        0.232821
LJ          -5.63935         3.86877        0.551193
LJ           4.44315         2.21944         2.36305
LJ        -0.0948985        -5.05901        -1.41382
LJ          -5.98701          1.1504        -5.39851
