108
#Comment!
LJ          0.828434        0.735458        -2.32308
LJ           5.71389       -0.508532         5.90515
LJ            5.1568          0.3547         0.19427
LJ           4.85545         3.84161        -1.51102
LJ          -6.15465         4.59156        -3.63069
LJ            5.1451         1.96092         1.32001
LJ          -2.18311       -0.623065         2.15575
LJ           3.31593        -1.14834        -3.79601
LJ          -3.88329         4.65329          3.2849
LJ          -3.44492        -3.21801        -4.95603
LJ         -0.262706         2.04495         -5.5875
LJ          -3.93465         4.91297       -0.268179
LJ           2.56701        -4.41706       -0.205274
LJ          -1.53901        -4.84232        -3.17699
LJ         -0.732398          3.7739        -4.52625
LJ          -1.90401       -0.915874         4.42004
LJ          -3.62642         -1.2374        -5.21166
LJ          -0.13838        -4.14477        -6.45942
LJ          -2.43939        -1.64224        -4.05782
LJ          -5.06987        -3.27805         3.97764
LJ          -1.78275        -2.13452        -3.13905
LJ           3.37162         6.27295         2.53741
LJ           5.61306         1.78253         3.93579
LJ         -0.348544        -5.39475         2.13578
LJ          -5.34326        0.849846         1.12124
LJ           -5.5823        -4.95018         1.87173
LJ           6.41095        -3.95257         1.58764
LJ          -4.14261        0.851913         5.97167
LJ          0.336343         2.61301         1.71219
LJ          0.351396        -1.03427         2.19386
LJ            1.3279         4.84614         -4.4246
LJ           3.02037         -5.4519         2.15753
LJ            4.8813         3.04716         4.85907
LJ           1.62556        -4.49797         -3.4971
LJ           5.44513         2.84122         2.33382
LJ           1.81693        -1.04949       -0.147108
LJ          -2.83636        -5.78907         5.95901
LJ          -1.23128        -1.16799         1.99641
LJ          -1.95482       0.0611591         3.57234
LJ          -6.16902         3.72204        -1.72346
LJ           5.31999        -1.39276        -2.01125
LJ           3.63121        -3.70844         5.16018
LJ            -2.123        0.224929        -1.29128
LJ          -2.50144        -1.70413         2.85453
LJ            1.1008       -0.279552         3.09873
LJ          -5.80712         1.02162         2.50147
LJ          -6.11411        -2.64725        -2.71409
LJ          -3.77076        -2.35629        -5.56394
LJ            3.5511        -3.18664         6.17218
LJ            4.3486       0.0813916          4.9571
LJ          -3.00924        -2.41142         1.76346
LJ          -1.86518         3.97169        -3.88071
LJ          -5.50251        -4.46011        -0.16171
LJ           4.07791         3.55389        0.681339
LJ          0.630721          5.0339        -2.17769
LJ          -2.20223        -4.81284         6.21674
LJ          -6.05512         2.84479        -2.18237
LJ          -4.75106         3.24233         -3.4778
LJ           6.05964         6.20979         2.96561
LJ          0.633004        -3.21147       -0.276658
LJ          -3.83199        -1.63416         5.73891
LJ          -2.22887         4.96097         3.90421
LJ           6.11297         3.64435        -3.66336
LJ           6.32939         3.48205        0.932797
LJ          -5.94702         5.30242       -0.117724
LJ           3.35875         6.17515        -3.84229
LJ           6.32071         5.15949         0.87657
LJ           2.30406          2.6227         5.52145
LJ           4.07502        -1.55094        -2.30459
LJ           4.17401          3.2457         1.61135
LJ          -0.89911        0.626406         1.43847
LJ          -0.42192       -0.820108         1.22397
LJ          -3.00402        -3.67182         -2.2929
LJ           -3.1072        -3.59793         2.97816
LJ          -5.91961        -6.11024         5.94994
LJ           2.77358       -0.526712        0.593961
LJ           1.65667        -2.71932         1.57994
LJ          -1.29199        -2.15396         2.69226
LJ           5.33455         5.99976        -4.80641
LJ          -3.15191        -3.15312         4.07197
LJ          0.506047       -0.857054         5.04784
LJ           3.65335        -2.66518        -1.74634
LJ           3.02119        0.331004       -0.981338
LJ           -1.5425        -1.13769         3.16377
LJ            3.8937        -6.25279        -4.94431
LJ          -4.60178       -0.183037         1.03018
LJ         -0.641095         1.37997         2.20831
LJ          -2.68203        -4.37409        -3.83469
LJ           3.74125        -3.07447        -2.84877
LJ            1.0656        -6.43096         3.21858
LJ           6.38863         5.31387         4.39019
LJ           5.73333       -0.491623        -1.67876
LJ           3.88199         4.78449         -3.3668
LJ           2.14867         1.96458       -0.724047
LJ           6.28823          4.4854        -2.61317
LJ           4.48121        -1.81751        -1.31965
LJ          -4.82587       -0.287184          2.7946
LJ           -2.5684         5.95054        -5.05506
LJ          -1.34343         -3.3342        -2.40588
LJ          -5.07974         3.20242        -1.24605
LJ          0.347248        0.783495         1.89154
LJ           2.45226       -0.697508        -1.18864
LJ           2.82421        0.247266          -5.545
LJ          -0.34493         1.78096         1.34613
LJ           5.61041         1.76124         2.26142
LJ           3.17772         2.38861        0.831858
LJ          -4.74278        -1.55861         -2.6649
LJ           6.10733          1.5983         5.01296
