108
#Comment!
LJ  0.15771917292499971   0.0143575464596546   -0.24933667482470842
LJ  0.37726847461440782   -0.07839380437491969   -0.035159385947913319
LJ  0.10687719359966054   -0.10822436137457346   0.12034169058649591
LJ  0.39721410006956037   0.35572247421462466   0.1923514751466418
LJ  -0.16463157524259178   -0.28876888584486343   0.3158413755920022
LJ  0.24486292761210818   0.47972201915755364   0.061270379261532802
LJ  -0.10450157816480959   -0.071495118999577015   0.41261558457968556
LJ  0.43540975180337538   -0.14740969719468938   -0.23128323408425627
LJ  0.10888343428972809   -0.38707718657766782   0.061312317363017468
LJ  -0.39008266201440955   -0.027680886176004699   -0.4168131026255078
LJ  -0.47256666959411947   -0.070322847647921322   -0.47778562524074797
LJ  -0.31931958880297867   0.010053342929542198   -0.14574638827369454
LJ  0.03093892871621973   0.20324509643901409   -0.19767939443797058
LJ  -0.46389319530812706   0.18404456334134961   0.10431993762648681
LJ  -0.1500484775092964   0.040569713271353898   -0.42983286566695394
LJ  -0.014615378482720334   -0.38511925018610677   -0.0005262305101640354
LJ  0.13828711899164831   -0.42516369295727624   0.43108132772452318
LJ  -0.12351125235744029   0.060481982424311118   -0.31009456522863693
LJ  -0.3546055187256929   -0.15763375599620336   0.33913616795017681
LJ  -0.24776462660222917   0.011843491734503261   -0.41148470331916559
LJ  -0.183601777625577   -0.045783786946213101   0.2127276972090045
LJ  0.31562889029906416   0.48841445718736687   0.10545490472474188
LJ  -0.39512267654542832   0.045181710533609032   -0.28130342054314111
LJ  0.10144920105196369   -0.44255680900800559   0.29887978784294889
LJ  -0.1273266927149756   -0.37446953616046336   0.16242222794265443
LJ  0.39662448200009692   -0.30617684338849144   -0.33965328795940547
LJ  -0.38592904919283483   0.23682081240018207   -0.24288851340856601
LJ  -0.44833417133190762   -0.20648035600713716   -0.32378557730388402
LJ  0.10550391473882303   -0.25247784317564176   0.0016756602458099499
LJ  0.11509222855002153   -0.037960110788961006   0.49142347170642475
LJ  0.17039646771832986   0.27168540105356598   -0.2575494618417048
LJ  0.37487834328318959   -0.4212207817988306   -0.084787822365133672
LJ  0.46125607114316358   -0.14542857415217597   0.36636748898870819
LJ  0.29868491285708526   -0.089470217393434762   -0.034667493616561865
LJ  0.3260970012385529   0.42044975563656772   0.050782324058799094
LJ  0.026301191900595742   -0.056017341888894429   0.48003150326961536
LJ  0.017716131583365331   0.4399212828175264   0.28544790776200446
LJ  -0.40335167491184315   0.020803690664877039   0.19212018721768104
LJ  -0.30670026583841814   -0.11845908642237542   0.49702301128376253
LJ  0.45826772745525113   0.35236767372287148   -0.049395170105346498
LJ  0.077810018878757298   -0.35862879888065952   -0.41724808099081778
LJ  -0.30026944104657816   0.47278745959339158   0.42603682736345999
LJ  -0.067525926233635042   -0.3864682381986127   -0.29847513679142473
LJ  -0.39892868165510109   0.038932543101045873   0.082907556998161921
LJ  -0.3131881246612796   -0.34602034711518487   -0.32770059359795845
LJ  0.41485715768907144   0.25515984398886998   0.059678723896933038
LJ  -0.46937964551139832   -0.1899903078479756   0.093797466889570691
LJ  -0.14155873483712431   0.1308152779527747   0.49838496246385128
LJ  -0.021076476013924254   0.027633537568524245   0.36777178741367772
LJ  0.43415898985191664   -0.23930951936593342   -0.2807731830654745
LJ  0.011068567670163114   -0.33921246702638636   -0.05922779061959782
LJ  -0.099164502848735556   -0.33557376619945267   -0.095205421843620713
LJ  -0.035445753287980823   0.009246281261240042   -0.12615516879959407
LJ  0.25649076177204655   0.48523509036687756   -0.079884708343970906
LJ  0.35081001158988634   -0.40599657554457103   -0.2790258997138505
LJ  0.41889850663882161   0.35445366627682079   0.39574680794701328
LJ  0.024950646544973566   0.3054603956082359   -0.35900779130585603
LJ  -0.25626630775214182   0.47114442271366314   -0.069434106475457516
LJ  0.060147585980667849   -0.17163863059230111   0.10631185987837348
LJ  0.43754605242295519   0.24397233638183138   -0.034818106976147643
LJ  0.14178540062788109   -0.00479375319059032   0.23251991681086975
LJ  -0.25378052414472929   0.36208903055669167   0.39212922656962362
LJ  -0.4985904812694571   0.3339828424522055   0.42307442538669854
LJ  0.30005373855421896   0.44568319361702002   0.20458870907649054
LJ  -0.47218574293026316   -0.35966301101051379   0.26780018255004923
LJ  0.27477196846906216   -0.34500041773769302   -0.32009502192236999
LJ  0.34984464512125252   -0.12836262767569662   -0.18444327608963201
LJ  0.036902908441358309   0.12956486014566845   -0.060957320838618947
LJ  0.45355574741753513   -0.089946105979212668   -0.15545205313914767
LJ  -0.069605207618109288   0.35331419697071892   0.34761769404211551
LJ  -0.30119948371006161   -0.014430494467470452   0.13484016486674244
LJ  -0.44005906590697735   -0.051060475763671252   0.45525069395826723
LJ  0.49489522953991921   -0.08779602459451015   0.0029163207610724347
LJ  0.13366885549331795   -0.4568093872325974   -0.47190474888723788
LJ  -0.18430972665503495   -0.11433795888279125   -0.22310098002275283
LJ  0.23425853821882275   0.23492550801127793   -0.37449676761173889
LJ  -0.36436321277950218   -0.27841182153193855   -0.094335563217539053
LJ  -0.017257913583144033   -0.099404366720392351   0.40915166995952684
LJ  -0.17882765511753054   -0.47403055080913581   -0.39527765533924147
LJ  -0.0056165009468446157   -0.21856781396106356   -0.47560801773892136
LJ  -0.13584371570616627   -0.18459334153973911   -0.15152874802662894
LJ  0.47738393245433902   -0.0096746063297877046   -0.1650279774383491
LJ  0.24673227146052484   0.26553108736958686   -0.29749190456090147
LJ  -0.28766189902961015   -0.018171032937053366   0.28597805085340822
LJ  -0.2075877427228732   0.28420573628129298   0.35857986726806484
LJ  -0.30145826796058833   -0.037390929922562106   -0.072035449024059173
LJ  -0.24345723839932959   -0.090798903470670891   0.13968459136696756
LJ  0.39242304868994737   -0.019791636633378643   0.26700088220834822
LJ  0.28910659525253191   0.00081014537042882516   -0.070099827194292516
LJ  -0.03815064790753378   0.25955560229508395   -0.2057110204507249
LJ  -0.36826793433420424   0.21471867715430037   0.42079431225544517
LJ  0.38677511803842496   -0.047866046438335037   -0.20718372845969152
LJ  0.091589827690669853   0.39267173823279083   0.39113405898589643
LJ  0.20922170220455549   0.15669359687769593   0.29459767096969169
LJ  -0.20789628896618975   -0.45264617430244958   -0.49737684028233053
LJ  0.41399218504809043   -0.01538921653100153   -0.12502955300146132
LJ  -0.12816947180802155   -0.010712246000130149   0.30628221782268472
LJ  -0.031645832260627754   -0.17041269488377558   -0.053689656812584197
LJ  -0.0011266259760341288   0.41879733263279073   0.37022211500606411
LJ  0.16773274407632532   0.24708987241183   -0.029267131723034721
LJ  -0.22969422838508557   0.056861364329950183   0.23824522468716078
LJ  0.36206493092156888   -0.037214600662520629   0.070785667972310798
LJ  0.32377793698922896   0.091633771759089724   -0.089762493054680537
LJ  -0.28496407771572374   -0.060890571346237314   0.063033717235672471
LJ  -0.43250763981951279   0.35460207760222701   -0.019919640890705935
LJ  0.27687738465866218   0.15525262652175131   0.33435380442205415
LJ  0.10311670705516625   -0.45457598254532267   -0.10529603980304755
LJ  -0.46968983144089305   0.060863088935585584   -0.33202328461410835
