108
#Comment!
LJ           1.08359        0.691291        -2.19746
LJ           4.60074       -0.839185         4.74411
LJ           4.23855         1.12295        0.127521
LJ           4.33299         2.07747       0.0887961
LJ          -4.78804        -6.38408        -4.18831
LJ           4.33223         2.76064        0.971102
LJ          -2.88047       -0.311688         3.64153
LJ           4.04632        -1.71998        -3.79677
LJ          -3.01944         3.29621         2.49352
LJ          -3.66422        -1.01495        -5.62661
LJ          -1.67095         1.11592        -5.37997
LJ          -3.44216         4.12773        0.683074
LJ           1.56219        -5.69996       -0.561887
LJ          -3.09348        -3.11725        -1.32832
LJ          -1.51791         2.13828        -5.08666
LJ         -0.735043        -2.11666         3.58753
LJ          -1.48257         -2.5781        -6.17857
LJ         -0.504986        -6.44237        -5.57462
LJ          -2.18052        -2.77163        -4.84872
LJ          -4.33262        -6.04188         5.79401
LJ          -2.34249        0.276685       -0.298863
LJ           3.78813         5.97403         1.32885
LJ            5.9168         1.40383         5.79295
LJ           1.15563        -3.36416         1.54094
LJ          -3.77886        -1.01999       -0.132243
LJ          -6.29011         -6.3456       -0.199828
LJ          -5.82455        -5.41169       0.0180178
LJ           -4.5196       -0.380803        -5.76582
LJ          0.578279         4.62668         1.38798
LJ           1.03209       -0.589367         3.21206
LJ           1.62869          4.6705         -4.5716
LJ           3.17962         5.76642        0.355306
LJ            4.9174        0.235672         4.62565
LJ           3.04276        -3.04055        -2.59626
LJ           5.39264         4.08468         2.08055
LJ          0.412196        -1.31467        -2.91034
LJ          -3.53795        -6.37596         5.09833
LJ          -3.26671      -0.0461552         1.90735
LJ          -1.29442       -0.204364         4.97162
LJ          -5.53521         4.67923        -1.22493
LJ           5.59688        -2.63432        -2.33252
LJ           1.85419        -4.32387         4.41658
LJ         -0.518555        -1.58451        -1.32171
LJ          -2.58892        -1.03839         2.39959
LJ           3.49404         2.46854         4.84937
LJ           6.14989        0.770591        0.821137
LJ          -4.99249        -3.25098        -2.80075
LJ          -3.58067        -1.47677         6.19756
LJ            3.4546        -1.80677          5.2558
LJ           4.57054        0.349686        -4.37384
LJ          -2.26763        -3.24256         0.73415
LJ          -2.50398         5.60051        -3.36145
LJ          -4.33175        -6.15413        -2.30396
LJ           3.60294         4.75859        0.440898
LJ           1.59263         5.49797         -2.1865
LJ          -2.85303         -6.3641         5.96841
LJ           5.06812         2.99056        -3.15439
LJ          -4.41427         4.19125        -2.73261
LJ           4.69776        -6.16552         1.02809
LJ          -2.19803        -5.05659       -0.536615
LJ          -2.99703       -0.385184        -6.44876
LJ          -2.66007          4.4118         2.39355
LJ          -5.95516         5.50614        -5.73362
LJ           4.87324         5.74612           1.005
LJ           5.96472          6.2792         1.38209
LJ           3.37976         6.20315        -1.96417
LJ           4.52284        -4.34383        0.164116
LJ           1.81133         2.69011        -5.47607
LJ           5.12918        -1.54179        -2.63919
LJ           2.83564         3.35132         2.20951
LJ          -1.30386         1.32662         1.42855
LJ            -2.541        -1.19147         1.11679
LJ          -5.20107        -5.00206        -2.92296
LJ           -2.5435        -3.75059         4.82703
LJ          -5.16857        -4.09682        -4.66062
LJ           1.55989        -2.47952        0.683334
LJ           3.40823        0.682591         4.55296
LJ          -1.94261        -2.04274         3.96571
LJ          -5.82064         6.41481        -3.99682
LJ          -2.94547        -3.83076         6.26505
LJ          0.566885        -0.68945        -5.96422
LJ           4.09989        -1.79224        -2.75179
LJ           3.41417        0.254471       -0.831328
LJ          -2.13969       -0.921252         4.34877
LJ           1.78483         5.26762        -5.47186
LJ          -4.08968       -0.628317        0.985635
LJ          -1.27802         1.47871         2.57204
LJ          -4.13371         5.38814        -5.57363
LJ           3.28877        -2.37921        -1.82483
LJ           1.88982         5.88726        0.668334
LJ          -5.75689         4.58048         4.34952
LJ           5.76422        -0.43383        -2.22178
LJ           6.39762          4.8228        -4.18516
LJ           1.88509         1.19984       -0.168401
LJ          -5.18656         -5.8919        -3.19842
LJ           4.78233        -2.05577        -1.75546
LJ          -3.71361        -1.27036         3.30377
LJ          -1.22518        -5.83379         5.34604
LJ          -1.17858        -3.81995        -4.44491
LJ           6.43777         3.98708         -1.0568
LJ          -1.09232      -0.0130899          1.4555
LJ           2.30319        0.305129       -0.484194
LJ           3.58657        0.661969         -4.3891
LJ         -0.681105        0.953147        0.408634
LJ          -6.38425         2.55407          1.8574
LJ           3.90662         4.01078         1.02126
LJ          -3.64421        -2.99263        -2.51559
LJ           -5.8439         1.51344         5.98892
