108
#Comment!
LJ           2.67814         4.51461         0.72348
LJ           4.47928          3.4826        -4.49342
LJ           5.07672         4.23009          3.5186
LJ          0.880748        0.701861       -0.193986
LJ           2.40677         3.11328        -1.61336
LJ          -6.43739         0.93006       -0.434291
LJ       -0.00217324         1.09156         4.71818
LJ           5.34283         4.23629         4.51841
LJ         -0.364761       -0.515393         4.31869
LJ          -3.60389         3.49927         5.32727
LJ           4.94959         1.16203        -4.34434
LJ          -1.21143        -2.99377       0.0478227
LJ          -5.41809        -2.90126       -0.041966
LJ            5.4271         6.31395        -5.57335
LJ          -6.43589         4.09009        -2.05893
LJ          -1.26201         4.47751         1.50915
LJ           2.70897         1.61336        -4.74188
LJ           1.68555         6.33413         5.99177
LJ           4.60851        -5.32141        -1.47772
LJ         -0.890466         1.69895        -4.04874
LJ          -6.27251        -5.68257        -6.31347
LJ           6.19351        -4.22151         1.96366
LJ           3.69227         -6.2684       0.0972772
LJ          -4.00512        0.106126         -1.1722
LJ            5.2709         5.94686       -0.419201
LJ          -5.30442         3.53716        -6.28833
LJ          -2.54147        -4.91877        -1.40695
LJ          0.762708         -5.1346         4.76052
LJ           5.13542          3.3686        -3.33761
LJ          -2.67177        -1.27628        -5.41798
LJ          0.139221        0.676029         -1.0121
LJ         -0.267827          3.5271        -1.04741
LJ           3.19019         5.89637        -2.74058
LJ           4.49569        -0.23064         3.95951
LJ          -2.67995       -0.421551         3.52213
LJ           4.60878         5.25619         4.87748
LJ           6.03095        -0.80753         1.89062
LJ           3.94367        -4.75671        -2.08274
LJ          -1.66488          5.4441         6.06064
LJ         -0.975218         3.27718         -5.4583
LJ           3.57276        -3.71706        -1.89112
LJ          -5.79284         4.17414         6.27928
LJ           2.22373         1.51024          -5.638
LJ           4.72368        -5.45184        -5.45349
LJ        -0.0141567        -6.27325         1.49114
LJ          -5.06806       -0.213078         5.72518
LJ           -1.1468         5.03907         3.22175
LJ           5.64914        -2.83988        -1.93881
LJ          -1.82859         5.48936         4.99647
LJ          -6.10216        -6.41197        -3.52762
LJ          -5.67279        0.203815         -5.7953
LJ           4.04918        -6.07537        -5.47677
LJ           4.87487         2.90001         2.60172
LJ          -3.42271         -4.9147        -4.70197
LJ          -2.36289         3.55032         1.52507
LJ           2.87404         6.40436        -2.99744
LJ          -6.14664        -5.63184         1.56217
LJ         -0.812929        -2.83412          3.0328
LJ           -3.5183         3.07706         6.09254
LJ            3.6699        -4.00765         0.90466
LJ         -0.767178           4.222          1.5709
LJ           3.17227        -4.89339        -4.95802
LJ           3.57388        -5.21036         -3.1778
LJ          -6.34874        -2.48438         4.70927
LJ          -3.18895        -2.89095          3.5183
LJ          -2.85044        -3.63992         -1.6347
LJ           -3.1494        -1.49379         4.41632
LJ          -4.91068         1.09734         3.97106
LJ           4.12098         -1.1076        0.299552
LJ            2.6589         1.09455        0.929251
LJ         -0.165419        -4.05417         6.32815
LJ            5.3226        -2.68355         2.51392
LJ           1.90058        -1.78996        0.394572
LJ          -5.23126        -6.43308        -3.81897
LJ          -1.25925         2.51458        -3.38429
LJ          0.596757        -3.63189        -2.46201
LJ           3.72338        0.544042        -2.96347
LJ          0.873058       -0.899283        -1.80112
LJ           0.23471        -5.86829         0.59851
LJ          -1.83511         1.53745         5.12719
LJ           5.96668        -5.58415        -5.81151
LJ           -4.9827         2.30385         0.50267
LJ           6.23359         1.56161        -2.78158
LJ          -6.41003        -5.36859        -6.13417
LJ           3.26329        -4.16708          6.1515
LJ        -0.0145581         -4.1576        0.295365
LJ          -6.07588         1.52714        0.506052
LJ           5.14094         2.65708       -0.632772
LJ          0.789606           1.187       -0.682337
LJ           -1.3255         3.38227         0.21324
LJ         -0.914356         1.88818         1.46671
LJ          -3.58168         4.83577         4.15455
LJ         -0.239582        -3.37245      -0.0979593
LJ          0.443865        -1.41629        -2.84835
LJ           5.19345        -6.12703        -1.52063
LJ         -0.766538        -5.67948        -3.09415
LJ           1.57893        -1.27756       -0.417335
LJ          -6.09926        -0.86619        -1.97531
LJ           3.93333         0.82416         3.38192
LJ         -0.256244       -0.763066        -3.44123
LJ          -1.85282        -1.52002         2.50565
LJ          -2.96874        -2.15173         6.08915
LJ           5.29094         -4.2594        0.102929
LJ          0.995763      -0.0456256         5.52779
LJ           -3.3605        -4.98881        -3.61959
LJ          -4.13865         -1.0686        -6.14427
LJ            5.9497        -4.51913         4.05474
LJ         -0.516037         6.15576         -1.2551
