108
#Comment!
LJ           2.12864        -4.77457         4.58277
LJ           6.21372         1.07375         1.99452
LJ           2.17691          1.2588          3.3397
LJ           5.25114       -0.888335         -4.6268
LJ          0.407593          3.1451        -4.32443
LJ           2.13714        -2.45596       -0.436772
LJ          -2.78216        0.389032         4.55362
LJ          -4.62744         1.45855        -1.55049
LJ           -2.6129        -4.56719        -4.90618
LJ          -5.66907         3.31915        -1.92928
LJ          -6.15684       -0.836413         4.94121
LJ           1.35426         3.77543         1.91161
LJ           3.05296        -6.10814         5.45919
LJ           4.43116          4.3257         2.19041
LJ          -3.26676        -4.92439        -5.27256
LJ          -6.36947        -1.64976         4.66665
LJ           1.89128         5.07222        -3.54525
LJ          -4.82423         -4.5588          1.0607
LJ            5.9718         3.92021        -4.46219
LJ          -3.85572         2.84712          4.6605
LJ           3.90767         5.30791         2.01079
LJ           -5.6997         2.69978        -2.69011
LJ            0.8464        -3.89427         1.93633
LJ          -6.14005         -6.3424        -2.92603
LJ           4.25914         4.83591        -2.38309
LJ          -4.60084        -5.27724        -2.94415
LJ           6.37718        -4.51314        0.409506
LJ          0.310322        -1.82752        -6.12485
LJ          -5.05589      -0.0268351         2.78508
LJ           4.34896        -5.37243        -3.88866
LJ          -1.16877         -1.9828       -0.716435
LJ          -1.59971         -1.7826         1.04304
LJ          -2.65296        -1.93478         5.85394
LJ            5.4091         4.40014         1.94199
LJ           4.52792         1.46865         3.48627
LJ         -0.603149        0.352445         6.24215
LJ          -5.43078         3.34215         1.05893
LJ           2.77731        -4.10359        -5.89394
LJ          -2.83096        -4.11784         2.46666
LJ          -2.42202         3.89276         3.60169
LJ           2.67143        -1.62245        -3.77585
LJ          -4.21999         4.29654       -0.543513
LJ          -1.61818         4.42937         6.16514
LJ          -5.41778         5.12392        -6.30798
LJ           1.42578        0.896133        0.397194
LJ          -5.29232         1.47767        0.138489
LJ           4.40802        -2.54964        -5.80069
LJ           5.21971        -1.80071         -4.9962
LJ          -2.57199         1.77844        -6.39159
LJ           3.54174       0.0315142        -5.95485
LJ          -5.48875        -1.08407       -0.987991
LJ          -6.14347         4.80966         5.05124
LJ          -4.24169          4.3317        -3.81962
LJ           3.33489         4.46137        -2.63303
LJ          -3.14362         5.82825       -0.459239
LJ          -2.43626         -6.2142           4.508
LJ          -4.31675          1.1084        -6.46184
LJ          -6.24713          2.0869         2.51195
LJ           2.03385         1.72643         2.62723
LJ           4.39954        -5.67754         3.72628
LJ          -1.87502        -3.82124         -5.1284
LJ           3.72498        -5.91196        0.328131
LJ          -3.06073        -5.77748         5.09889
LJ          -5.72601        0.629663         2.43837
LJ           5.18819         5.67446         2.09463
LJ          -5.53188        -2.97949        0.448271
LJ           1.25634      -0.0608329         5.20737
LJ          -6.36099        -4.04131        -5.11576
LJ          -3.86372        -3.21134        -1.21009
LJ          -3.37114       -0.325192         1.82856
LJ          -0.49807         4.30661         5.69588
LJ        -0.0917904        -2.26654        0.463642
LJ           4.18588         1.27409        -1.43154
LJ           6.43328         1.25568         5.29793
LJ          -3.29103        -2.45317        -5.20683
LJ          -3.10218         1.79181         5.10499
LJ         -0.755711           2.129         3.31446
LJ          -1.59933        -1.47895        -6.34389
LJ           4.77856        -5.90338         6.32042
LJ           2.13824         6.28109        -1.86364
LJ          -5.68085          3.8901        -4.31274
LJ          -1.32263        -5.14079         2.77166
LJ          -3.48094         2.55751        -4.97926
LJ         -0.245155        0.402804         3.97581
LJ         -0.178915        -1.56906       -0.271566
LJ         -0.659986         2.93961         5.80234
LJ          -4.54178         6.03564         5.07488
LJ           1.64745        -2.98976         4.31289
LJ          -2.05527        -3.79134        -1.47627
LJ          -3.09756         3.69521        -5.45942
LJ           -5.6847         4.73926       0.0239537
LJ          -5.62537          6.1679        0.503463
LJ          -2.36591        0.241591          4.6525
LJ           4.29958        -3.82423        -4.41375
LJ          -4.03353         -4.5742          2.3028
LJ            2.3129         4.34001        0.350465
LJ          -6.44851        -1.76688         3.52806
LJ           3.60679        -2.32481        -2.18782
LJ           5.34262         6.09956         3.01896
LJ           4.11269        -1.17258           5.237
LJ           2.75315         4.07689         2.06135
LJ          -6.20784        -5.59569         4.99721
LJ           5.57363        0.773876        -3.97441
LJ           6.16349        -2.87117         1.69967
LJ            3.9641         3.45336        -0.38996
LJ          -5.76216         1.44317        -3.91516
LJ          0.472445        -3.11169        -3.91637
LJ         -0.164789         1.93831        0.590377
