108
#Comment!
LJ          0.457926        0.472391        -2.86081
LJ           6.10808        -0.13953        -6.39367
LJ            5.5885      0.00727166         0.20353
LJ           4.93037         4.34485        -2.92601
LJ           5.64183          3.2414         -2.7977
LJ           5.81368         1.82834         1.12976
LJ          -1.65001        -1.10707         1.70606
LJ           2.72012       -0.888003        -3.84289
LJ          -4.12494         5.53859         3.78084
LJ           -3.1185        -3.84126        -4.89038
LJ          0.480125         2.65805        -5.63696
LJ          -4.30418         5.31714       -0.784911
LJ           3.08368        -3.68122      0.00221218
LJ         -0.861646        -5.35186        -4.32898
LJ          -0.65451           4.552        -4.08215
LJ          -2.90168         0.11488          3.7741
LJ          -5.09909        -1.22432        -5.00576
LJ        -0.0126162        -2.92126         5.95928
LJ          -2.67583        -1.22337        -3.40242
LJ          -6.41842        -2.25123          3.2666
LJ          -1.60649        -3.46846        -4.72878
LJ           2.83282        -6.06206         3.01465
LJ           5.39398          2.3283         3.22327
LJ          -1.22346         6.24774         2.59994
LJ          -5.73996         1.02403         2.29804
LJ          -5.49201        -3.70181         2.89822
LJ           6.27589        -3.71554         2.43808
LJ          -4.05468         1.52313         5.39562
LJ           0.96639         2.25419         2.54443
LJ          0.159779         -2.4078          1.1391
LJ           1.16835          4.9435        -4.30085
LJ           3.03593        -4.97117         3.35247
LJ           5.26564         4.33722         4.90226
LJ          0.957488        -5.21118        -3.91611
LJ           5.52517         2.03597         2.24324
LJ           2.15715       -0.842042      -0.0375592
LJ          -2.33067        -5.26271        -6.33051
LJ         -0.530859       -0.583313         1.80552
LJ          -2.27458        -0.69044         2.49015
LJ          -6.09656         3.34554       -0.868095
LJ           4.36007        -1.22722        -1.53997
LJ           4.66737        -3.32233         5.50837
LJ           -3.1333          1.1401        -1.35868
LJ          -2.12925        -1.96059         2.66619
LJ          0.451548        -1.14366         3.00274
LJ          -5.04762         1.32796          3.2879
LJ           6.14214        -1.92929        -2.64776
LJ          -3.53022        -2.38894        -4.56566
LJ           3.54541        -3.97571        -6.20025
LJ           4.39761       -0.140252         3.01893
LJ           -3.3653        -1.67757         2.38009
LJ          -1.12105          3.1205        -4.36958
LJ          -6.18954         -3.5145         1.09022
LJ           3.92829         2.79816        0.391469
LJ           0.11922         4.77838        -2.20798
LJ          -1.83274        -4.21831         6.29878
LJ          -4.81141         1.99671        -2.22661
LJ          -5.12404         2.78535        -3.74089
LJ          -5.89075         6.14008         3.80888
LJ           2.21785        -2.24343       0.0240689
LJ          -4.12026        -2.60099         5.56872
LJ          -2.23579          5.1226         4.65937
LJ           5.56271         1.74529        -3.78817
LJ          -5.93592         2.48691        0.978235
LJ          -5.73712         4.52008       -0.334778
LJ           3.10541        -5.78712         -5.1729
LJ          -5.22228         3.16401        0.441371
LJ           2.58109         2.58116         4.46977
LJ           3.65368        -1.88791        -2.09576
LJ           4.17139         3.09959         2.15102
LJ         -0.828774        0.369494         1.80553
LJ          0.447815       -0.603685         0.65335
LJ          -2.33738        -3.35292        -1.89741
LJ          -2.70956        -2.88005         1.68159
LJ           -6.0655          5.8624         4.75891
LJ           4.41609         1.06024         1.20226
LJ          0.654307        -4.42323       -0.235959
LJ          -1.10515        -2.61185         3.01166
LJ           4.25063         5.93203        -5.07798
LJ          -2.73713        -2.83814         3.05059
LJ          0.431577       -0.909461         4.24492
LJ            3.7141        -2.93774        -1.83561
LJ            2.4096      0.00729301        -0.92957
LJ          -1.11999        -1.28941         2.63489
LJ           4.83009        -5.72102        -4.30571
LJ          -5.38072        0.815694         1.13898
LJ         -0.357564        0.989063         2.71758
LJ          -1.58832        -2.50801        -3.17114
LJ           4.16396        -2.60195        -2.78505
LJ          0.683115        -6.06894         4.54764
LJ           5.50583         5.27338          4.7013
LJ           6.02313      -0.0315411        -1.52368
LJ           3.25008         3.98312        -3.01053
LJ           2.71982         2.47871       -0.423252
LJ          -6.32767         4.23124        -1.83202
LJ           4.18462        -2.32507        -1.15739
LJ          -5.14805       -0.122313         2.06041
LJ          -3.45467         5.49947        -3.73218
LJ         -0.903193         -3.2557        -1.08943
LJ           -4.9406         3.43223        -1.72057
LJ          0.323398         1.37383         1.68063
LJ           2.47356        -1.19906        -1.07346
LJ           2.48672       -0.012188        -6.21092
LJ           -0.4788          1.4112        0.927151
LJ           4.83666         1.15019         2.59865
LJ           3.40145         2.18395         1.11184
LJ          -5.38809       -0.940294        -2.73871
LJ           5.25853         1.68444           4.156
