108
#Comment!
LJ           5.96506        -6.44074        -3.88748
LJ          -3.69609       0.0944568        -3.81345
LJ          -3.46561        -1.76599       -0.987746
LJ           1.06596        -6.13827         1.21552
LJ         -0.331855        -2.20369          -3.463
LJ           3.60585        -4.88932         5.10081
LJ          -1.53768        -2.26377         0.31654
LJ         -0.356396       -0.889627        -2.96822
LJ           5.90499        -2.10622        -5.39365
LJ           1.19461        -2.63581        -3.15899
LJ           3.08553        -5.92974          -6.024
LJ           3.71765        -4.59952        -1.60714
LJ          -4.56119       -0.367676       -0.614721
LJ          -1.39984          2.6944        -3.93282
LJ          -1.86164         1.57946        -1.74596
LJ          -3.81022        -6.03166       -0.329092
LJ          0.585751        -1.64096        -3.53842
LJ          0.485001        -1.24506        -5.17939
LJ          -1.48863       -0.590469        -1.97223
LJ           1.66559       -0.313326        -1.31936
LJ          0.726113        -3.04983        -4.09416
LJ           1.80337        -1.13883        -5.05978
LJ           3.21041         1.90571         0.89502
LJ           5.43578       -0.351179         1.29183
LJ          -5.55876       -0.489988        -5.52879
LJ          -4.48911      -0.0888542        -4.47249
LJ          -4.15872        0.669108        -5.31961
LJ          -1.26765         1.90894        -5.15158
LJ          -5.63288         1.38269         6.05525
LJ          -5.28736         3.00581         5.67948
LJ          -1.54551         2.63487        -2.79901
LJ           1.49807       -0.909365        -3.91254
LJ           3.24389        -0.39574        -3.31703
LJ          0.164591         2.68683        -4.61124
LJ          0.459136         6.18647        -3.37233
LJ           3.35872        0.323142         -2.1471
LJ          -1.45463         5.84072         1.83416
LJ          -0.48726        -2.16613       -0.950439
LJ          -2.16169          5.6571         1.13107
LJ          -2.81182      -0.0528352       0.0539094
LJ           1.16072        -2.40985       -0.511902
LJ          -2.70034        -1.57264        -4.14959
LJ          -4.59794        -4.21332        0.941883
LJ         -0.316627        -2.88637       -0.138297
LJ          0.617392         -2.4419        -1.48135
LJ          -6.33011        0.543945         1.23829
LJ           2.52691       -0.559388        -1.94908
LJ          -1.77473        -2.33906         1.58855
LJ          -5.29292         -1.8969        -3.31821
LJ          -4.43547        0.468029        -1.33508
LJ          -6.09018         2.05712         1.48094
LJ           5.76216        0.772683         2.53302
LJ           1.84944         5.89331        -5.22402
LJ          -2.41273         3.07362       -0.497121
LJ         -0.430943         1.90806        -1.62324
LJ       -0.00659101        -1.97601         3.37787
LJ          -3.00873        -1.88778         3.54597
LJ           4.23504        0.792361        -2.33672
LJ          -2.57933        -2.68704       -0.276936
LJ          -2.61158       -0.369894        -1.04926
LJ          -4.16479         4.53113         2.81936
LJ          -2.09067         3.73651        -3.88981
LJ           4.62912         6.34774       -0.457697
LJ          -3.82745        0.156439       -0.130449
LJ          -2.91455         1.41271        0.998694
LJ        -0.0346589         4.23637        0.657637
LJ          -1.93078         5.99999        -0.85015
LJ          0.877622         1.28554        0.421268
LJ           1.66167       -0.750344        0.386504
LJ          0.189266         5.28209         1.63126
LJ         -0.243468        0.405647         1.63335
LJ           2.23502        -6.42523       -0.467683
LJ          -1.06843        -1.39835        0.755884
LJ          -1.54855       -0.724431         1.57792
LJ          -3.50544         1.44717         3.84178
LJ          -3.97719        -5.24244        0.659863
LJ           3.57476        -5.82838         6.02194
LJ            -1.963        -3.68575        0.860384
LJ          0.854299        -3.09517         4.93755
LJ          0.940476        -2.94777        0.647589
LJ          0.659648         5.54781         3.12403
LJ            3.5515       -0.742727         -2.4677
LJ           1.88372        -3.26385       -0.154898
LJ             1.101        -3.44124         1.61473
LJ          -4.37804        -3.70853        -0.84484
LJ          -4.09559         1.32913      -0.0429401
LJ         -0.197172         1.16229        0.502497
LJ          -1.85866        -1.33063        -0.13194
LJ          -5.48475        -0.24948        0.170781
LJ         -0.595321        -1.09541         3.72245
LJ          -2.04806         -2.0272         2.73421
LJ           3.90248       -0.953813        -5.57964
LJ          0.760148       -0.703144       -0.729239
LJ           3.05523           2.126        -1.41131
LJ           3.72068         2.86535         1.24353
LJ           2.57749      -0.0713306         0.68845
LJ          -4.59987        0.374435        0.715497
LJ          -3.31425         2.02319      -0.0994286
LJ         -0.568771        -1.57814        -5.73428
LJ          -3.00411         2.27317        -1.17846
LJ          -1.27414        0.583031         2.13976
LJ           1.36946          5.7732        0.673929
LJ           0.31152         0.23868         3.69427
LJ         0.0767174       0.0197844         2.68008
LJ           3.62662        0.530945         1.37309
LJ            2.5325        0.401643         1.59382
LJ           2.35042         1.00302        -5.02423
LJ           3.62826        0.636374         2.78533
