108
#Comment!
LJ           5.21433         2.29902        -1.67814
LJ           1.45265         4.87986         3.63127
LJ         0.0704323         2.07972           5.176
LJ           3.57671        -6.40692        -3.75354
LJ          -5.15811        -2.72055         1.97043
LJ          -5.60191        -1.95508         -5.3005
LJ           4.58588        0.680254        -4.91978
LJ          -5.54328        -4.09844         -4.7992
LJ          -1.85552        -2.38238        0.725329
LJ           5.36472       -0.146197        -1.86572
LJ           2.43526        0.257835         1.94057
LJ          -3.42721          3.9456        0.720726
LJ          0.963472         4.98068         5.22297
LJ           1.03688       -0.992846        -5.22856
LJ           2.44632         3.94024         5.78767
LJ          -3.65961         1.27189         5.83006
LJ         -0.592702        -2.76974          1.5736
LJ         -0.920285         1.45506         2.35037
LJ           2.83006        0.696859        -4.45078
LJ           4.94165        -3.10998        -4.64681
LJ          -6.14853         2.22276         4.85924
LJ          -6.29406         1.63442         2.85494
LJ           1.26639         -2.7508        -4.80984
LJ          -1.97674         6.06457       -0.583833
LJ          -4.47655         1.03396         3.04737
LJ          -3.32567         4.44915       -0.661089
LJ          -5.65107         -1.6859        -4.37761
LJ           -5.6072         2.70748        -3.32596
LJ           2.76145         5.41589        -3.53631
LJ           3.16973        -6.00563         5.93683
LJ          -3.67301         2.13918         3.67697
LJ          -3.90454        -2.19754         2.35687
LJ          -0.57607        0.137451        0.685682
LJ           2.11744        0.541294       -0.102335
LJ           4.69728        -4.51182         6.45638
LJ           1.67322         3.35928         5.31151
LJ          -6.29423        0.432093        -4.16134
LJ          0.516312        -3.63513        -4.73293
LJ            2.4311         -4.3243        -2.17925
LJ          -5.20585         3.01802         4.18484
LJ           4.54509         1.83981         4.39772
LJ          -3.07272        -4.27001      -0.0484399
LJ           5.90242         1.72853        -3.70014
LJ          -2.85059        -2.79173        -2.79008
LJ           -2.9867        -5.13032        -4.98843
LJ           -2.5525         2.41107         1.27673
LJ          0.319075        -4.35526        0.736106
LJ           4.41865       0.0621311        -5.68164
LJ          -3.54163         4.32287        -4.18835
LJ          -3.19672         0.71624         5.32966
LJ           3.56025        -5.27446        -2.63221
LJ           4.14656        -2.68839         -6.0152
LJ          -5.13139        -2.22861        -4.45523
LJ           4.30864        0.142683         3.62924
LJ            5.1761         1.71009         6.27229
LJ           5.71199         2.45075        -4.70394
LJ           5.40048        -5.28889         5.77173
LJ           3.88592        0.767218         3.78043
LJ          -5.58769        -1.93881       0.0276253
LJ          0.441369        -1.16539        0.926893
LJ         -0.311185        0.896741        -5.20566
LJ          -1.14954         4.41182          1.1501
LJ          -4.69569       0.0740242         4.98225
LJ          -5.28746         1.72321        -2.13414
LJ          -6.21304       -0.113423         1.51802
LJ          -0.31692         1.59577        0.274142
LJ           4.75605        -2.45532        -4.87452
LJ          -5.65181        -3.83179        -6.38848
LJ            3.5763         4.25523         3.73022
LJ           3.21884          2.3135         5.69211
LJ          -4.41107         4.88119         1.20108
LJ          -1.08781        -4.06725       -0.866012
LJ           1.63848         5.82811        -2.54286
LJ          -3.08461        -2.36471        -5.95024
LJ          -2.86357         5.25573        -3.40709
LJ           4.81282        -5.45397         4.71047
LJ            3.2949         2.47566         1.54372
LJ          -4.94387         5.42771       -0.325457
LJ          -4.83257        -4.16576         -1.3119
LJ          -2.99247         5.94912        -0.37808
LJ           1.95106          4.5687        -6.27813
LJ           4.75573         5.03956         3.23924
LJ             2.735       -0.682357         2.85125
LJ           -5.3647         1.76775         6.08427
LJ           3.18008         1.96315        -1.69963
LJ          -1.47943         3.06791         4.56448
LJ           -4.6962        0.415034         1.64671
LJ          -5.23574         2.39137         3.86408
LJ          -4.50116         1.70815         1.88462
LJ         -0.573483       0.0146781        -3.94336
LJ          -3.83111        -3.00418        -1.25487
LJ           4.14565        -3.93455          4.5082
LJ          -1.27028         4.08754         5.99979
LJ           -2.6912         1.22123         4.88305
LJ         -0.342576         4.14541       -0.951488
LJ          0.772089         3.36186        0.577079
LJ          0.285525       -0.753591         1.31598
LJ           3.88688         3.25893          6.3501
LJ          -4.19747       -0.735689        -1.07897
LJ            6.3283       -0.125631        -2.72259
LJ           5.32258        -4.59802         -5.6994
LJ          0.380511         2.22273        -2.23743
LJ          -2.11993        0.064099       -0.775669
LJ           1.86001        -6.31195         3.01301
LJ           2.70182         1.85572        0.917934
LJ          -2.80886        -2.17205         1.81855
LJ           2.90496         6.44343         5.88247
LJ           2.04427         5.66814         -2.9242
