108
#Comment!
LJ          -6.38496         6.01598        -5.40605
LJ           4.41643        -5.23388        0.638968
LJ          -3.05293        -2.56401        -5.18407
LJ          -2.32183         1.24316         1.69703
LJ         -0.969078        -4.30864         4.89775
LJ           1.18648         1.45619         2.28534
LJ         -0.298286        -6.38657         4.91265
LJ           3.49345       -0.188006        -6.45688
LJ           3.70528         -2.0822        -6.28957
LJ           5.69935          2.9096         1.38699
LJ          -4.31954         5.76574        -5.86131
LJ           2.60588         1.86507        -4.12189
LJ           5.57654          -4.121         2.69172
LJ           4.65196       -0.546884        -5.60552
LJ           3.14036         3.76123         5.81869
LJ           1.88842        -3.86261        0.849226
LJ           4.81916         2.57748        -1.38941
LJ          -2.61348        -2.74078        -2.38456
LJ           6.36444         3.52224         6.09309
LJ           3.12282        -2.49766         5.57755
LJ          -1.74671        -0.72638        0.077301
LJ          -2.55034        -5.66701        -4.97439
LJ            1.7214        -1.56278        -2.58515
LJ            -4.759        -4.55384         2.61629
LJ           2.45936         1.25003         2.66985
LJ          -2.33273        -1.33321         2.34151
LJ          -6.45747       -0.697604        -5.74041
LJ          0.808751       -0.989988         2.99886
LJ           5.00818        -5.83449        -4.14575
LJ            6.1589        -5.82394         4.19947
LJ           1.41307         -1.3259         6.12819
LJ           1.15086         4.01715        0.180928
LJ          -4.00234         4.24959        -3.43363
LJ          -5.36129        -6.35031        -2.42961
LJ           2.15647         6.18582        -3.57286
LJ         -0.734121        -3.78043         2.73001
LJ           3.72993        -6.37609       -0.902293
LJ           -2.5184        -5.16073        -3.26997
LJ          0.800746         1.20533        0.315453
LJ          0.274817          -3.682        0.251579
LJ          -2.33005        -3.35043         2.17601
LJ          0.299155          1.9897         2.80529
LJ         -0.382816       -0.285414        -1.37741
LJ           2.18257        -4.92231        -1.86603
LJ           6.23247        -4.59394         5.81677
LJ           1.34027       -0.291313         1.54572
LJ            4.7565        -1.52262         1.39834
LJ           1.12286         -5.5355         2.57495
LJ          -2.31734         3.77959        0.057739
LJ          -1.41838          2.1081         -3.1945
LJ          -4.38152         3.02105        -4.77857
LJ           2.87367         3.33339         1.71838
LJ           1.29501        -4.13761         1.68332
LJ           1.53704        -4.02528        -3.47598
LJ             5.238         2.13558        -3.96686
LJ          -5.83258         3.84722         3.91467
LJ           2.24983      -0.0116513         2.22378
LJ          -3.03998         1.50799         5.13845
LJ          -2.09679        -1.56378         1.50279
LJ           4.12776         2.90336        -1.47907
LJ          -5.03453          5.6485        0.316674
LJ           1.94612         5.40443        -5.85026
LJ          -1.91058        -2.39257        0.383443
LJ          0.468704        0.415702        -6.29821
LJ          -4.93358          5.8742       -0.577431
LJ           3.45946        -6.20076      -0.0752177
LJ            5.6795         2.22147        -5.13881
LJ          -3.98566         4.70276          2.3807
LJ           6.10212        -0.17241        -6.16608
LJ          -2.15934         2.37878         5.14838
LJ         -0.556856        -5.66016          2.7368
LJ           2.76143         1.59625         2.54101
LJ           1.01215        -4.67929        -4.10755
LJ           5.40717         2.55988         -1.1017
LJ          0.806141        -2.58866        -5.66817
LJ           3.30521         2.41018         2.56857
LJ           3.60739         1.76661       -0.928471
LJ          -5.91332         5.01193        -1.93691
LJ          -3.95213        0.514551       -0.617253
LJ          -2.93273        -5.59841        -4.18141
LJ         -0.510939        -0.44737        0.262803
LJ           3.12566         1.26711          5.6828
LJ           4.99545           1.922         4.19225
LJ          -4.48241        -2.21444         5.12721
LJ           5.15278       -0.853372         4.73753
LJ           6.11314       0.0237042         1.93397
LJ          0.386853         2.46263        -1.00004
LJ         -0.747767        -6.35919      -0.0404913
LJ           0.89332         2.10482        -5.18068
LJ          -6.04381         2.41434        -2.10068
LJ         -0.242482         4.35586        -4.14299
LJ           1.30475         5.62152         6.37755
LJ           2.54867         1.69577        -2.86795
LJ           2.24028        -6.24396         5.61783
LJ          -4.66224        -3.24631          1.0821
LJ          -5.69909         4.01651         3.33036
LJ           1.15034         2.78777       -0.412775
LJ          -3.66112        -4.10985        -4.17339
LJ          -6.04141         5.67124       -0.679651
LJ         -0.732186         4.96549         2.32116
LJ            2.9065         5.65721        -2.51608
LJ           1.14898        -6.16111         3.10884
LJ         -0.255428        0.540165         2.52883
LJ          -2.92535       -0.133566        -4.71489
LJ          -5.11496        -6.45863          3.2118
LJ         0.0964673       -0.963951         4.37501
LJ          -4.70415        -1.66921         3.33036
LJ           3.17744         -4.3707         -2.3666
