108
#Comment!
LJ           4.43016         5.41942         3.76144
LJ          -5.91302        0.517858        0.718817
LJ           -6.0169         1.71477          5.6479
LJ           2.66861        -4.35557         1.62486
LJ           4.66973         1.48869          2.8076
LJ          -1.02499         3.65254        -2.59934
LJ          -6.22018         1.95419        0.485294
LJ          -3.04282          1.5514        -4.46678
LJ           1.60241        -3.91176        0.594077
LJ           2.49982        -0.88378        -2.75523
LJ          -5.02788        -1.00957       -0.433176
LJ          -4.69018        0.930618        -5.60829
LJ          -4.96241        -2.74514         2.62531
LJ          -5.02043         5.33638         5.70507
LJ           2.11296        -4.29794        -5.68379
LJ          -5.50723         5.32604         6.20438
LJ           2.56449        -2.23169         1.28373
LJ           2.27992         5.59451         3.53119
LJ           6.06842         -2.6193        -6.29991
LJ          -1.54073         6.40264         5.46927
LJ          -5.78821        0.664966         3.38428
LJ           1.54577        -5.12655         -1.7609
LJ           1.70353        -4.34982       -0.471235
LJ           6.17273         1.63393        -5.60602
LJ          -4.92249        -6.15252         1.03186
LJ           4.95238          5.4819         1.43073
LJ          -1.27489         4.85516        -5.61708
LJ           5.43522         5.78972        -2.58138
LJ         -0.344922        -1.44911         2.45698
LJ          -1.36121        -3.18634          5.3512
LJ          -1.47235         1.32152          3.2345
LJ           3.72098         1.68856      -0.0596175
LJ           1.14205       -0.428894       -0.064112
LJ            1.3078           0.927          6.1634
LJ            5.7472       -0.476061        0.293921
LJ          0.783346         3.79543         2.07434
LJ          0.664583        -3.20784        -2.20176
LJ          0.298104         5.15831        -1.03809
LJ         -0.229641        -6.09011        -2.81089
LJ          0.370041          4.9561        -4.97238
LJ           1.53746        -5.60201        -2.83721
LJ         0.0290782         -1.2278         1.79505
LJ           5.21413         6.35102        -1.94348
LJ           5.02297         4.86298        -1.84282
LJ         -0.144909        -1.08215         4.87413
LJ           3.44765       -0.684618        -1.17913
LJ          -2.31101       -0.129101         -4.1022
LJ          -5.20782         3.52482         2.12332
LJ          0.810576          -2.017         5.69306
LJ         -0.964632        0.548956         3.11773
LJ           5.13719         3.85614         -4.3722
LJ           0.31354         3.46121         3.82777
LJ          -4.77891         2.47365         5.07589
LJ           -3.1998        -4.07063         1.47111
LJ           3.29068        -5.95566         3.82719
LJ         0.0215717         3.00733        -1.87323
LJ           2.33827         -6.4599       -0.200042
LJ          -5.99428        -5.37155        -2.82569
LJ           6.22456         2.61044        -0.30392
LJ          -1.82995        -5.69265         -2.2956
LJ          0.987065         1.16561       -0.241932
LJ          -5.60803        0.352108         2.11477
LJ            4.9752        -2.30614         2.87618
LJ           5.29459        -0.13024         2.39642
LJ            4.9938      -0.0378949          -5.199
LJ          -2.78743          -1.063        -2.17309
LJ          -2.34667        -4.54681        -3.75306
LJ           2.12148         4.36598       -0.348522
LJ        -0.0153507         1.85417        -5.87972
LJ           -5.4457          1.2445         -2.5962
LJ          -0.63516        -1.61226        -3.43606
LJ           5.33615         1.73743         3.51216
LJ          -2.09222         3.80315        -1.76604
LJ           1.06537        0.150426        0.113929
LJ          -3.34619        -3.74706        -3.80693
LJ           1.29633         5.22081        -1.87659
LJ           3.20235         5.95442        0.929658
LJ           5.63968        -6.08406        -3.98505
LJ           2.94128        -1.16302         1.85022
LJ           3.54685       -0.596542        -4.88095
LJ           4.36677         1.34787         1.55191
LJ          -2.98628        0.696345         5.42914
LJ          -1.42201        -2.81839        -1.08093
LJ         -0.676797         -3.1369         5.23704
LJ           3.14961         4.14346        -4.98202
LJ           4.55718        0.926314        -2.51966
LJ          0.118809        -1.38983        -5.78813
LJ         -0.197707         2.35931         6.12996
LJ            2.9486        -3.28773        -5.16908
LJ           4.48974        -2.00401        -4.20312
LJ           -0.8786         6.07302        -5.78077
LJ            5.5031        -4.16437        -2.89762
LJ          -1.14825        0.881444        -6.40554
LJ           -1.8552        -4.01198         2.61796
LJ            2.7337         -5.0201         2.25046
LJ           4.54284         5.19895        -4.12368
LJ            3.2406         3.51646         2.64849
LJ           3.03459        -3.99126        -6.05093
LJ           -1.6652         6.25707         4.96385
LJ          -6.05586         3.94806        -2.67914
LJ          -5.35549         5.01861         2.37961
LJ          -1.63848       -0.387007        -2.93526
LJ          -5.39319        -4.67986         2.92645
LJ           2.71636        -3.35152         -3.5202
LJ          -3.07495         2.77752         5.40147
LJ          -6.12473       -0.700698        0.484217
LJ          -3.46729         4.90622         4.80172
LJ           3.76348         1.36254        -5.16114
