108
#Comment!
LJ          -1.79021        -1.22045        -3.98194
LJ           4.05575      -0.0853045        -5.58251
LJ         -0.333874         5.92626        -4.33251
LJ          -6.04023         -3.9074       -0.806057
LJ            1.8794         5.96818          2.1546
LJ          -3.45041        0.347736      -0.0801973
LJ           6.06077        -4.96748        -3.29477
LJ           4.71005        -1.94872        -0.67836
LJ          -5.23192         5.49143         3.39463
LJ           4.22517         -1.1116         5.71317
LJ           3.70752        -4.84104        -4.20538
LJ          -1.46639       -0.973338         4.26774
LJ           2.96744        0.643814        -4.97549
LJ           6.43606        -2.33703         3.75875
LJ          -1.27088         5.02181         -1.9651
LJ           5.92763        0.300942        0.807158
LJ           3.38616         1.88569         3.37149
LJ           5.03807         2.40572         2.77617
LJ          -6.08629         1.54286        -1.21609
LJ           4.86661         6.07647        -3.47771
LJ          -5.41683         5.48322         6.24635
LJ           2.98132         4.60453         4.68813
LJ          0.950655         5.17755        0.610612
LJ          -2.45814        -2.65539         2.93889
LJ          -4.14482         1.27086        0.621489
LJ           1.70554        -1.32699         3.46525
LJ          -4.61447       0.0461535       -0.899759
LJ          -4.49112         -2.1099         5.34926
LJ          -5.32192         2.58699         1.80381
LJ          -3.01492        -2.96439         4.68388
LJ          -4.77526        -1.88528        -5.68778
LJ           4.51793         3.28298        -5.90916
LJ          -2.95389        -4.72772         1.70313
LJ          -2.35376        -2.65583        -3.02679
LJ           5.98458        0.275561         5.55285
LJ          -5.78812         2.86661         1.36117
LJ          -1.95045        -3.23115         2.52374
LJ          -5.38172         3.95489        -5.43266
LJ           5.67273         2.94586        -1.09531
LJ           2.80024       -0.243045         5.99402
LJ           5.75388        -4.89559         2.87019
LJ          0.198312         4.05387        -6.08543
LJ           5.12655        -3.64747        -1.76434
LJ          -3.32706        -5.60431         3.77265
LJ          -2.98171         -4.4891       -0.757249
LJ            5.0008        -0.48056          4.1548
LJ          -0.95488         2.06437         5.83223
LJ          -4.42546         5.98794         5.52969
LJ          0.127463        0.524952         1.02576
LJ           5.30081        -0.32042        -6.32083
LJ           3.14906         6.21032       -0.483363
LJ           5.10193        -4.25707         5.77519
LJ           6.17791         4.95545        0.393636
LJ          -1.90593         5.69886         4.49249
LJ         -0.343657       0.0149328         3.81788
LJ           3.82021          6.4216         -2.6713
LJ           4.70807         4.24048        -4.03186
LJ          -6.18728          5.4223        -1.65036
LJ          0.641566         -5.3895         0.50992
LJ          -2.92633        -6.35997        -5.61531
LJ           2.61326        -1.14449       -0.605656
LJ          -1.05143        0.965539         5.97669
LJ          -1.44837        -3.37071         3.36894
LJ          -5.53999        -5.07802        -4.74454
LJ            4.9907         4.58039        -3.12982
LJ           -6.1116       -0.862436        0.147303
LJ           4.68502       -0.456232        -6.37275
LJ          -2.69013       -0.620926        0.706167
LJ           2.92094       -0.808947         4.79469
LJ           2.90758         2.25457        -6.35843
LJ          -2.37256        -3.35063           5.474
LJ          -4.64022          -1.708        -6.15274
LJ           -4.4498        -4.25872         -5.4223
LJ          -4.84433         1.45383         1.13348
LJ          0.561865         3.96199         4.39429
LJ           1.81915       -0.346851        -2.55846
LJ          -3.01905        -1.29668       -0.866545
LJ           6.32759        -5.55802       -0.775218
LJ         -0.279777         5.38436       -0.533829
LJ           4.84856         5.84879        -2.49755
LJ          -3.92469        -5.07166       -0.861619
LJ           1.57898        -1.72413          2.2964
LJ         -0.562163        0.111111        -3.90776
LJ           3.90274         5.68096         6.07798
LJ           2.91603         4.23889        -4.41471
LJ          -1.54041        -1.23711        -1.65278
LJ          -1.70177         1.14983         2.34669
LJ            -4.197         -3.9082        0.254937
LJ           3.14146       0.0550024        -5.83783
LJ            5.0745        -1.56647         2.62333
LJ           6.36336         1.46023         2.52079
LJ          -3.08936        -4.28564        -3.67096
LJ           5.33048         5.69759         4.88356
LJ           5.86549        -6.39626         4.77915
LJ           5.55437       -0.540999        0.510483
LJ         -0.674498        -3.66674        0.595973
LJ          -4.83487        -3.25931         4.05142
LJ          -1.26362         2.57584        -2.93978
LJ           1.23719        -3.68068         5.60193
LJ           1.53882        -2.61503         1.17462
LJ         -0.895286        0.402463         3.33859
LJ           4.98476        0.209954         4.99758
LJ          0.690424        -6.18879         1.87151
LJ           3.35131        -5.64789       0.0856184
LJ          -2.23469        -4.94077        -3.10158
LJ          -5.57687        0.655725         1.57124
LJ           3.16211        -1.08552         3.38685
LJ          -4.44383         -1.8562        -3.47866
