108
#Comment!
LJ           1.90177        0.145837        -3.22178
LJ            4.8948        -1.10804       -0.143488
LJ           1.53997        -1.27285         1.52652
LJ           5.12265         4.45565         2.37055
LJ          -2.26978        -3.85307         4.31832
LJ           3.20587         6.17604        0.816676
LJ          -1.44404        -1.05629          5.2331
LJ           5.41219        -1.86072        -3.03515
LJ           1.14611        -5.38243        0.893215
LJ          -4.87463       -0.275472        -5.46133
LJ          -5.87317       -0.890984        -6.08604
LJ          -4.06311        0.331538        -1.65332
LJ          0.466674          2.9133        -2.32419
LJ          -5.77245         2.19175         1.25126
LJ          -1.96702        0.543581        -5.58149
LJ         -0.346996        -4.83962        0.272844
LJ           1.60605         -5.4358         5.89241
LJ          -1.52897         1.09918        -4.06637
LJ          -4.45004        -2.13674         4.54847
LJ          -3.22241        0.114789         -5.0226
LJ          -2.23129       -0.333161         2.70149
LJ           4.13518         6.33546          1.3706
LJ          -5.25115        0.633369        -3.76595
LJ           1.30141        -5.61644         3.79614
LJ           -1.7443        -4.66989         1.93039
LJ           5.20727        -4.15206        -4.20275
LJ          -5.04444         3.24507        -3.01444
LJ          -5.91807         -2.4695         -4.0704
LJ           1.36362        -3.56587       0.0975809
LJ           1.62071        -0.42172         6.15188
LJ           2.18834          3.5958        -3.34517
LJ            4.7513        -5.55595       -0.974129
LJ           5.99304        -2.15493         4.56917
LJ           3.72537         -1.3902       -0.491672
LJ           4.41173          5.3319        0.655039
LJ          0.250012       -0.743318         6.23597
LJ         -0.101868         5.74599         3.69805
LJ          -4.97192        0.151037         2.42724
LJ          -3.73125        -1.49926         6.39237
LJ           6.03795         4.65358       -0.534203
LJ           1.11589        -4.47048        -5.04547
LJ          -3.56193         6.28753         5.37436
LJ         -0.472146        -4.86192        -3.94345
LJ          -5.22985        0.506575         1.20143
LJ           -4.2301        -4.81286        -4.41088
LJ            5.2852          3.0917        0.852772
LJ          -5.95834         -2.5681         1.01207
LJ          -1.91955         1.59576         6.35998
LJ           -0.1259        0.254885         4.81811
LJ           5.81821        -2.95515          -3.479
LJ        -0.0375759        -4.28743       -0.755045
LJ          -1.38915        -4.39889         -1.5228
LJ         -0.670438        0.467178        -1.69478
LJ           3.28302         6.12714        -1.05063
LJ           4.32862        -5.42627        -3.50308
LJ           5.64249         4.55075         5.13195
LJ          0.582137         3.87404        -4.65466
LJ          -3.40236         6.02043       -0.978153
LJ          0.812848        -2.37018         1.16715
LJ           5.72352         3.30801       -0.614865
LJ           1.58053       -0.025035         3.25459
LJ          -3.26902          4.4901          4.8815
LJ          -6.27913         4.55486         5.51124
LJ           3.73907          5.8394         2.58826
LJ          -6.23961        -4.44771         3.51703
LJ           3.52834        -4.58079         -3.9491
LJ           4.53162         -1.5406         -2.4367
LJ          0.556688         1.72852        -1.00774
LJ           5.77178        -1.26647        -2.15542
LJ         -0.704966         4.43762         4.35868
LJ          -3.74226       -0.204842         1.69895
LJ          -5.59935       -0.716352         5.64025
LJ           6.45172        -1.30591       -0.125587
LJ           1.47917        -5.60396        -6.08503
LJ          -2.60743        -1.21635        -3.21483
LJ           2.95577         2.64316        -4.64913
LJ          -4.96604        -4.06584        -1.57884
LJ         -0.453043        -1.34263         5.20979
LJ          -2.65902        -6.16073         -4.9818
LJ         -0.287696        -2.98152        -5.97652
LJ          -1.56165        -2.23259        -2.12666
LJ           6.25796        -0.22093         -2.3733
LJ           3.17325         3.15409        -3.55066
LJ          -3.65598       -0.269073         3.90029
LJ           -2.5132         3.80335         4.77974
LJ          -3.85432       -0.435493        -0.97991
LJ          -3.04243        -1.12935         1.87235
LJ           5.25845       0.0268171         3.65608
LJ           3.76973      -0.0607411        -1.03119
LJ         -0.369706         3.52371        -2.64691
LJ           -4.6992         2.89917         5.28984
LJ           4.88597       -0.617419        -2.73186
LJ           0.84002         4.99459         5.35529
LJ           2.59412         1.99407         3.60069
LJ          -2.77383        -5.81809        -6.30465
LJ           5.31941       -0.370114        -1.49147
LJ           -1.5477       -0.251906         3.94106
LJ         -0.341611        -2.33974       -0.367215
LJ         -0.081605         5.72143         5.00815
LJ            2.5931         3.36808       -0.472574
LJ          -3.10781        0.820638         2.88986
LJ           4.48978       -0.308959        0.886151
LJ           4.21641          1.2563        -1.35034
LJ          -3.52948       -0.719623        0.673973
LJ          -5.52955         4.43778      -0.0846034
LJ           3.76794         2.04841         3.98311
LJ           1.08746        -5.74354        -1.37978
LJ          -6.03905        0.858637        -4.47496
