108
#Comment!
LJ         0.0402772        -1.71694        -5.82697
LJ           -2.6537         2.25468         -6.3543
LJ           5.60932         4.43913       -0.919477
LJ           2.10356         2.68618          1.9981
LJ           3.24387        -1.04733         4.95066
LJ          -1.16779         3.26653        -2.75206
LJ           1.21814         2.36941       -0.671238
LJ           5.11074         3.30644        -5.38456
LJ           4.14777         4.35228        -1.37378
LJ           5.85073       -0.295606         5.03684
LJ          -5.30959        -5.47944        -3.18836
LJ           -5.7108         5.80319        -4.44473
LJ          -5.96317         2.83526         4.22844
LJ          -5.74433        -1.17317        0.636375
LJ          -3.49757        -5.72875          3.6219
LJ          -2.12075         6.15596        -5.64602
LJ          -3.41141       -0.266387        -2.40522
LJ          -1.01345         6.10178        -5.25162
LJ           -6.3783         1.46379         4.15541
LJ         -0.371247        -1.32792        -4.13129
LJ            1.3308         2.84481        -2.63828
LJ          -3.83309       -0.643908        -4.06347
LJ           5.23617         1.88798        -1.76311
LJ          -2.68925         4.91417         1.35564
LJ           1.27176         3.77956        -6.39538
LJ           3.69136         2.69435        -4.02419
LJ          -5.72689        -6.04244         1.21282
LJ           2.21675         4.08649        -1.31827
LJ         -0.223421        -4.70705         2.34152
LJ          -3.17221        -3.16487        -2.06265
LJ           2.30004           4.512         2.29689
LJ          -4.07585        -5.32226        0.376759
LJ           1.33286        -3.94662         6.19496
LJ            6.3185         6.27571         1.02131
LJ          0.648621         1.43277         6.17803
LJ           2.82401        -1.84364         3.22583
LJ           5.57878        -4.46261         5.60421
LJ            4.1057         4.00486        0.940045
LJ          0.562585        -1.12868        0.947684
LJ          -5.70663         1.03394          1.1103
LJ           1.68154        -1.06512         5.23449
LJ           1.32122        -1.00192        -2.68797
LJ          -1.91183        -5.87538        -5.22791
LJ           3.00067        0.541224         3.48264
LJ           6.18043         3.94609        -1.15774
LJ             5.168        -4.12016         4.59014
LJ            4.1888         1.66489        -3.86825
LJ           2.39075        -0.68769         3.96072
LJ           3.19252       -0.168241        -1.62695
LJ          -5.85555        -2.75611         5.39534
LJ          -2.15692        -3.15098         2.41898
LJ          -3.70816        -2.45804        0.319313
LJ          -3.59127         2.94205        0.179173
LJ           5.80999        -4.07154      -0.0229209
LJ           4.80181        -2.34924        -4.01718
LJ         -0.765232        -2.17573         3.11915
LJ          -2.22531         1.25318         4.07423
LJ          -4.76148         1.87527        -5.80092
LJ            3.5779         3.27528        -1.65825
LJ          -4.91969        -2.50912        -2.04202
LJ           0.47459        -6.05876         2.11112
LJ          -1.31122       -0.883628         2.25504
LJ           2.61409        -1.52177        -2.84233
LJ          -1.83863       0.0513914        -2.05405
LJ          -1.80321          -4.425        -3.10023
LJ           5.51008         5.77388        0.357616
LJ         -0.632118        -5.22895         6.34043
LJ           3.90506       -0.269935        -4.06326
LJ          -1.39372        -3.47729        -3.71043
LJ           4.74309        -3.95351        -3.43789
LJ           6.03421         4.57827        -3.14502
LJ          -5.64865         2.30577        -1.58591
LJ           4.55546        -1.41127         6.33893
LJ           2.60195        -5.29789         -5.8354
LJ           5.39233        -2.12548        0.327489
LJ           1.52942         1.76246         6.37986
LJ          -5.95845         3.23487         1.42541
LJ          -3.31907        -2.25588         2.79471
LJ         -0.142248        -5.64956         1.79167
LJ          -3.16452        0.446521         6.12599
LJ           6.17235         2.34569         3.09137
LJ           1.22004        -4.13041         3.66253
LJ           1.60609         1.77211         4.50218
LJ           2.56878        -5.30976        -4.61036
LJ           5.58751        -5.83054         5.21652
LJ          -2.59922         1.71145         4.28087
LJ           -1.2558         3.59029        -2.53841
LJ          -5.42154        0.841399         -2.4771
LJ          -1.98673       -0.348628         3.49382
LJ          -1.23965        -1.04232          4.9392
LJ          0.232645         2.12683        -4.04379
LJ           4.01826        -6.06283         4.44042
LJ          -4.96302       -0.646052         5.85105
LJ          -3.60522         -5.5339         2.71456
LJ           5.56844        0.917593          3.8904
LJ         -0.718453        -4.19138        0.278483
LJ           1.46212       -0.482843        -4.02111
LJ           5.29257        -4.22087         2.18564
LJ         0.0133994        -3.18609         2.61361
LJ           4.72914        -5.98991         4.60217
LJ          -2.40608         5.19143         5.61757
LJ           6.24637        -1.60014         3.90617
LJ           5.08265         6.32449          1.6274
LJ           2.49244         4.47735        0.291599
LJ           4.65092         4.26976       -0.463231
LJ          -3.83325        -5.49271         1.23793
LJ          0.540007       -0.739079        -1.79781
LJ          -2.45012         4.01765         3.34143
