108
#Comment!
LJ           1.07144         0.66025        -2.23581
LJ           4.53944       -0.839118         4.69283
LJ           4.17538          1.0551        0.121144
LJ           4.36487         2.07932        0.119851
LJ          -4.74757        -6.28973        -4.19304
LJ           4.28694         2.82421        0.928889
LJ          -2.91309       -0.335455         3.65648
LJ           4.06718        -1.73847        -3.86588
LJ          -2.95689         3.26822         2.45805
LJ          -3.64642       -0.889965        -5.68899
LJ          -1.74476         1.01206        -5.38814
LJ          -3.41991         4.09156        0.728964
LJ           1.51794        -5.76136       -0.575597
LJ          -3.17206         -3.0292        -1.26022
LJ          -1.54542         2.12606        -5.09388
LJ         -0.747388        -2.15014         3.52432
LJ          -1.41804        -2.64804        -6.22077
LJ         -0.528661         6.37738        -5.54051
LJ          -2.21061        -2.77505        -4.92025
LJ          -4.32549        -6.19942         5.89393
LJ           -2.3527        0.383204       -0.161284
LJ           3.75107         5.92904         1.23557
LJ           5.94542         1.38403         5.88328
LJ           1.14374        -3.43056         1.63656
LJ          -3.69824        -1.11747        -0.13167
LJ          -6.34359        -6.39182       -0.291056
LJ          -5.78542        -5.50335       -0.050446
LJ          -4.55004       -0.431246        -5.70312
LJ          0.590059         4.71763         1.37205
LJ            1.0604       -0.566613         3.25601
LJ           1.62787         4.62134        -4.52049
LJ           3.14591          5.8196        0.315397
LJ            4.9383       0.0988042         4.62509
LJ           3.11249        -2.98617        -2.57752
LJ           5.37245         4.14958         2.05339
LJ          0.344834        -1.32109        -3.04213
LJ          -3.56913        -6.37889         5.08044
LJ          -3.35025      -0.0267915         1.91418
LJ          -1.27881       -0.227976         5.02121
LJ          -5.51951         4.66917        -1.17674
LJ           5.61867        -2.66779        -2.35642
LJ           1.77459        -4.34794         4.38613
LJ         -0.457868        -1.66711        -1.33028
LJ          -2.60148       -0.966858          2.3897
LJ           3.60379         2.58801         4.92739
LJ           6.11393        0.759253        0.746133
LJ          -5.00459        -3.25871        -2.81318
LJ          -3.56879        -1.44568         6.15908
LJ           3.45406        -1.74233         5.20835
LJ           4.60805         0.34895        -4.20404
LJ          -2.23158        -3.27234        0.690981
LJ          -2.53346         5.67375        -3.33968
LJ          -4.29432        -6.22207         -2.4206
LJ            3.6126         4.71929        0.439969
LJ           1.63923         5.52012        -2.18754
LJ          -2.87478        -6.45124         5.94136
LJ           4.98943          3.0037        -3.19617
LJ          -4.40399         4.23913        -2.69569
LJ           4.57278        -6.03289        0.952924
LJ          -2.32842        -5.13777       -0.548935
LJ          -2.94329       -0.345427        -6.40288
LJ          -2.70372           4.353         2.32127
LJ           -5.9069         5.55451        -5.83265
LJ           4.81497         5.80456         1.01599
LJ            5.9819         6.27578         1.44199
LJ            3.3682         6.21988         -1.8806
LJ           4.45438        -4.19469        0.106524
LJ           1.78908         2.69389        -5.38784
LJ           5.18079        -1.59995         -2.6229
LJ            2.7616         3.37037         2.25635
LJ          -1.28025         1.33442         1.43544
LJ          -2.66616        -1.18639         1.16044
LJ          -5.28398        -4.95419         -2.8966
LJ          -2.48866        -3.74314         4.92244
LJ          -5.13332        -4.00759        -4.55198
LJ           1.59454        -2.40432        0.571719
LJ           3.49275        0.840318         4.68978
LJ          -1.94296        -2.02387         4.02713
LJ          -5.79354         6.42391        -3.99856
LJ          -2.91258        -3.85656          6.3392
LJ          0.568484       -0.681834        -5.87811
LJ           4.09357        -1.81556        -2.72643
LJ           3.40471        0.251173       -0.806907
LJ          -2.13724       -0.943005         4.40451
LJ            1.7038          5.2433        -5.55043
LJ          -4.04936       -0.630539        0.947533
LJ          -1.30785         1.45941         2.53436
LJ          -4.20796         5.24766        -5.64592
LJ           3.31234        -2.27971        -1.76287
LJ            1.9495         5.85829        0.543813
LJ          -5.72146         4.54708         4.34713
LJ           5.80264       -0.394455         -2.2424
LJ          -6.38797         4.81927        -4.23109
LJ           1.87885         1.24487      -0.0735241
LJ          -5.03899        -5.89974        -3.24194
LJ           4.73346        -2.06274        -1.79528
LJ          -3.62381        -1.29787         3.31817
LJ          -1.19124        -5.76634         5.23481
LJ          -1.13423         -3.8949        -4.50783
LJ           6.38985         4.06971        -1.07212
LJ          -1.17642     -0.00530027         1.42568
LJ           2.34578        0.294435       -0.480328
LJ           3.59905        0.687991        -4.34444
LJ         -0.729734         0.89945        0.425123
LJ          -6.35815         2.58247         1.82912
LJ           3.97635         4.04721         1.08674
LJ          -3.54346        -3.04652        -2.48889
LJ          -5.84285         1.50686          6.0178
