108
#Comment!
LJ          0.417804        0.742228        -3.76141
LJ          -6.27986        0.320136        -5.52536
LJ           6.15749       -0.277825        0.120501
LJ           3.94815          5.0674        -4.59565
LJ           4.55295         1.09077        -1.54759
LJ          -6.39643         1.79492         1.05148
LJ         -0.923793        -1.53575         1.13796
LJ           1.95566       -0.570013        -3.83139
LJ          -3.92629        -6.44094         4.87525
LJ          -2.16605        -4.17917        -4.95273
LJ           1.37397         3.48743        -5.61882
LJ          -5.05095         5.67997         -1.4514
LJ           3.72799        -2.22828       0.0024134
LJ          0.113106        -5.92592        -5.78813
LJ         -0.572548         5.19986        -3.33408
LJ          -4.16237         1.33879         2.53394
LJ           5.97887        -1.37703        -4.70999
LJ         0.0620571        -1.66513         5.51998
LJ            -2.887       -0.991697        -2.60044
LJ           4.88522        -1.30421         2.13207
LJ          -1.17297         -3.7274        -4.92854
LJ           2.17799        -4.86442          3.7788
LJ           4.71555         2.99708         3.02703
LJ          -2.39004         4.53284         3.25176
LJ          -5.70575          0.6206         3.26871
LJ          -5.74149        -2.15016          4.0568
LJ           6.42117        -3.15195         3.89991
LJ          -3.79454         2.47566         4.73411
LJ           1.98123         2.10385         3.78105
LJ           1.24831        -5.08739        0.499329
LJ          0.772331          5.0514        -4.07805
LJ           2.99449        -4.75954          4.8492
LJ           5.29346         3.09929         5.56439
LJ         -0.115169        -6.20613        -4.50535
LJ           5.93828       -0.169806         3.50521
LJ           2.85566       -0.874676        0.206177
LJ          -2.44178         -5.9469         6.23175
LJ        -0.0866292       -0.829717         1.57575
LJ          -2.30834       -0.211628         1.45274
LJ          -5.51221          2.1208       -0.522832
LJ           3.56031        -1.28178        -1.05437
LJ           5.91824        -2.89698         6.09388
LJ          -4.42508          2.4064       -0.854973
LJ          -1.80948        -2.49275         1.87965
LJ          0.763927        -2.12326         1.47955
LJ          -4.66849         1.96207         3.87792
LJ           5.25749       -0.825322        -2.53083
LJ          -3.07778        -2.61846        -3.17945
LJ           4.18143        -4.05665        -5.52972
LJ           4.63897        0.161815        0.445307
LJ          -4.32454       -0.270014         2.15453
LJ          0.229715         2.38719        -5.07232
LJ           5.71475        -1.91701         2.83045
LJ           4.49729         1.61845        0.489699
LJ         -0.604247         4.48476        -2.49204
LJ          -1.44825        -3.52841         6.17776
LJ          -3.53891         1.01808         -2.9178
LJ          -5.66152         2.12108        -3.83318
LJ          -4.78945        -6.03084          3.0303
LJ           4.43857       -0.870998       -0.114149
LJ          -4.49732        -3.89172         5.34876
LJ          -2.30099         5.36127         5.62281
LJ            4.9415       -0.551837         -3.7794
LJ           -4.9632         1.57053        0.910462
LJ          -4.77918         3.98823      -0.0303467
LJ           2.66814        -5.49427         5.91485
LJ          -4.16162        0.642092       -0.397819
LJ           2.87076         2.45949         2.94779
LJ           3.03557        -2.06184        -1.59942
LJ           3.77232         2.82131         2.56104
LJ          -1.53517        0.732957         2.62107
LJ           1.40321        -1.03373      -0.0251855
LJ          -2.13765        -3.03038        -0.81985
LJ          -1.82234        -1.96235        0.500745
LJ          -5.59806         4.89396         4.64263
LJ           5.83892         3.41489         1.19542
LJ         -0.645548         6.39918        -2.80747
LJ          -1.26034        -2.49987          2.9583
LJ           2.75559         6.13794        -5.34298
LJ          -1.81444        -3.58024         2.60867
LJ          0.237612       -0.452634         4.77334
LJ            3.7651        -3.23191        -2.04976
LJ           1.85211        -1.07213        -1.21544
LJ         -0.724272        -1.78524         2.27314
LJ           5.70775        -5.22816        -3.53174
LJ          -5.77465         1.35014         2.06609
LJ           0.55526        0.805233          2.5648
LJ         -0.478595        -0.53833        -3.00985
LJ           4.51662        -1.69403        -1.95252
LJ          0.183199        -5.54551         6.21973
LJ           3.87992        -5.70968         4.49268
LJ           6.24526        0.345915        -1.18975
LJ           2.56696         2.95193        -2.52808
LJ           3.03391         3.26628      -0.0882382
LJ          -6.03599         4.06952        -1.24993
LJ           3.93536        -2.47543        -1.06471
LJ          -5.84143        0.854041        0.840012
LJ          -4.64433         4.80727        -1.93402
LJ         -0.789666        -2.66784       -0.430733
LJ          -4.76714         3.50428        -2.15959
LJ         -0.499307         1.19075          1.7217
LJ           2.12599        -1.94903       -0.363722
LJ           2.03176       -0.366328         5.83747
LJ         -0.431769         1.39935        0.559664
LJ           4.32531        0.808998         2.10419
LJ           4.18511         1.67117         1.50978
LJ           6.30551       -0.282487          -2.778
LJ           4.29031         1.77369         2.61181
