108
#Comment!
LJ          -2.99564        -3.09675        -3.04587
LJ          -1.76636        -2.62613        -2.97303
LJ          -3.07397        -2.18359        -2.34367
LJ          -1.49051        -3.61582        -1.87527
LJ          -0.76345        -3.04882         -2.8419
LJ           0.83591        -2.27265        -3.56697
LJ          -1.41616        -2.20383         -1.7148
LJ        -0.0367042        -2.92388          -2.076
LJ           2.05939        -3.23796        -3.36745
LJ            1.4734        -1.88484        -2.71961
LJ          0.846971        -3.01335        -2.67407
LJ           1.71774        -3.22521         -1.9967
LJ          -3.55884        -1.13263        -2.65799
LJ           -1.7108        0.143524         -3.0367
LJ           -2.8492        0.719013        -1.71065
LJ          -2.25496        -1.63653         -1.7621
LJ         -0.760835        -0.67295        -2.72443
LJ          0.102921       -0.667728        -3.44416
LJ          -1.12971        0.387955           -2.17
LJ          0.317831       -0.910308         -2.1797
LJ          0.889006        -1.06252        -2.92025
LJ           1.48968        0.670867        -2.62824
LJ            1.2882       -0.370987        -1.66101
LJ           2.93586        -0.99103        -1.75451
LJ           -3.5082        0.902501        -3.45737
LJ          -2.90237         2.13755         -3.2561
LJ          -3.18699         1.44464        -2.37286
LJ          -2.16896         1.26046        -2.18636
LJ          -1.41898         1.23858        -3.16723
LJ         -0.508907         1.61816        -2.96164
LJ          -1.54991         2.25592        -2.64072
LJ         -0.503009         1.11009        -2.14763
LJ           0.70403        0.458282        -1.92708
LJ            1.3611         1.61553        -2.90316
LJ          0.575898         1.92796        -2.33617
LJ           1.65227         1.57808          -1.879
LJ          -2.68184        -3.60738        -0.73495
LJ          -1.96089        -2.81747        -1.01446
LJ          -3.31315        -3.06942      0.00099746
LJ          -2.08232         -2.5581        0.112934
LJ         -0.952317        -2.83954        -1.03633
LJ          0.151001        -1.78351        -1.36492
LJ          -1.41697        -1.13919       -0.401219
LJ           0.14754        -2.95709        -0.20494
LJ          0.376882        -2.68757        -1.18568
LJ           3.02275        -1.67518        -0.77689
LJ           1.07559        -1.92205       -0.406829
LJ           1.64498        -2.91575        0.187497
LJ          -3.21379       -0.184967        -1.41305
LJ          -2.13841       0.0515477        -1.46226
LJ          -4.00797        0.156703       -0.126306
LJ          -2.52055       -0.709451        -0.81549
LJ         -0.406386         -1.7489        -2.33058
LJ         0.0130332        0.484859         -1.2218
LJ         -0.706751       -0.245051         0.23887
LJ         0.0872763        -1.27989        0.421977
LJ           1.33004        -1.38794        -1.34379
LJ              2.12         0.21145        -1.44577
LJ          0.556355        -0.33124        -0.35523
LJ           1.55198        -1.00558      -0.0996496
LJ          -3.16432          1.3281        -1.00304
LJ          -1.66424           1.859        -1.56123
LJ           -3.9157         2.48232        -0.33774
LJ          -2.22858        0.525917        -0.17603
LJ          -1.26993        0.351585       -0.534527
LJ        -0.0544274         1.72094         -1.6068
LJ         -0.836412         1.48283       -0.359127
LJ          0.183118         1.53104       -0.633159
LJ           0.92339         1.39861         -1.1988
LJ           1.45005         2.11027       -0.962372
LJ          0.745866         1.80368        0.314662
LJ            1.9675         1.69575       0.0442453
LJ          -2.88891        -3.05654         1.06768
LJ          -2.24367        -1.96334          1.6177
LJ          -2.99637        -1.52994         2.23335
LJ          -2.37532         -3.5761         1.83788
LJ         -0.446337        -3.72868         1.60209
LJ          -0.18064        -2.64643         1.03595
LJ         -0.432639        -1.21373         2.12526
LJ          0.457022        -2.96082         1.98427
LJ          0.498189        -3.28541        0.601833
LJ            2.1917        -2.30186        0.863867
LJ           1.36566        -2.41928         1.78767
LJ           1.97788        -3.43179         2.08548
LJ          -3.16888        -1.08207          1.0628
LJ          -2.73809      -0.0426043        0.868538
LJ          -2.78679        0.324899         2.14017
LJ          -2.45728        -0.67128         1.73832
LJ          -1.61928        -0.42382        0.983084
LJ         -0.293113       -0.692356         1.23381
LJ          -1.14658       -0.209215         1.95156
LJ          0.472692        -1.18413          2.9784
LJ           1.34206        -1.37805        0.851289
LJ           2.09788        0.585641        0.730065
LJ            1.6226        0.533571          2.0916
LJ           1.97899       -0.893069         1.48582
LJ          -3.08068         1.08391        0.754678
LJ          -2.17402         2.42609        0.986227
LJ           -2.7016         1.53767          2.7196
LJ          -1.70126         1.26542         1.53737
LJ         -0.568465        0.754688         1.61147
LJ         0.0703119         2.63113         1.05735
LJ         -0.792506         1.96856         2.58739
LJ         -0.389109        0.962528         2.61796
LJ           1.45543          1.4139         1.11142
LJ           2.50306          1.7192         1.18845
LJ          0.877957         1.33609         1.97137
LJ           2.59225        0.956536         2.60066
