108
#Comment!
LJ           4.04458         4.88923        -4.28426
LJ          -4.60288         0.43754        -4.09447
LJ          -4.32227        -1.11833       0.0847747
LJ           1.81968          6.3997         3.78504
LJ         -0.684736        -1.35785        -4.16468
LJ            5.0919         6.10389         3.24956
LJ         -0.761899        -2.42806         1.19042
LJ          0.265252       -0.308136        -3.43111
LJ          -5.53934        -3.10467        -6.17406
LJ           1.20317        -3.29327        -4.46898
LJ            2.6356         5.58094        -5.69375
LJ           5.17004        -5.47174        -1.61896
LJ          -5.59294       -0.884341        -0.62183
LJ         -0.227401          4.4495        -4.28177
LJ         -0.900986         2.31393        -1.49359
LJ          -4.22484         4.09377        0.261768
LJ           1.89765        -1.42574        -4.06228
LJ          0.204003        -1.44013        -6.13205
LJ          -2.33677       -0.719361        -2.05953
LJ           2.50563        0.115219       -0.259672
LJ          0.125149        -3.55305        -4.13366
LJ           1.90074         -2.3501         -6.3965
LJ           3.95702         2.03169         2.52635
LJ          -5.68489        0.684623         3.08911
LJ           6.14336       -0.185669         6.40104
LJ           -4.4032       -0.991367        -6.29427
LJ          -5.35476       -0.267171        -6.20503
LJ          -2.05149         3.29623        -6.24143
LJ           5.64647          1.8152         5.26177
LJ           5.46636         3.84081         3.28459
LJ         -0.525673         3.92666        -3.31433
LJ           1.94878        -2.39486        -5.28682
LJ           4.72013          0.4015        -5.51819
LJ         -0.435803         3.81421         -5.1545
LJ           1.87728        -4.03986        -5.04495
LJ           3.59971      -0.0589727        -1.80873
LJ          -2.05659         5.40559         3.53887
LJ          0.147633        -1.49495       -0.106801
LJ          -2.00691         3.80255         1.17651
LJ          -3.75328       -0.231686        -0.45523
LJ           1.68081         -1.8976       -0.710353
LJ          -4.04275        -2.12111        -5.00496
LJ          -5.58783         6.27493         1.09407
LJ         -0.833221        -3.31122        0.166167
LJ         -0.220809         -2.4413       -0.658481
LJ          -5.20843         1.44641         2.05083
LJ           2.86697       -0.537389        -2.41775
LJ          -2.50877        -2.33307        0.159068
LJ          -6.45712         -2.6481        -4.03246
LJ           -5.9174        0.176573       -0.800606
LJ            6.4227         1.79783         2.11409
LJ            3.6795         1.75272         3.81126
LJ           3.11109         3.10491         6.33715
LJ          -4.03627         3.25955       -0.156279
LJ          -1.03426         3.05945        -2.51244
LJ         -0.662801         -2.7856         5.21701
LJ          -1.42912        -1.28381         -5.2921
LJ           5.52397         1.24136        -3.10423
LJ          -3.42138        -4.03149        0.900424
LJ          -4.73166       -0.496671       -0.950994
LJ          -4.58113         6.00141         4.60902
LJ          -2.11703         4.02688        -5.38349
LJ            3.2987        -4.94667       -0.906463
LJ          -4.51216        0.956239       -0.501242
LJ          -3.54725         2.68357        0.537525
LJ          0.438682         5.39961         2.22803
LJ          -2.91595          -4.439         -1.0913
LJ            2.0698        0.651267        0.728299
LJ           2.74174        -1.75303      -0.0187192
LJ           1.73441         4.42731         2.01667
LJ          -1.40056        0.941117         1.76551
LJ           1.90621        -3.99719        0.240773
LJ           -1.0505        -1.73876        0.353099
LJ          -1.48684        -1.00645         1.15945
LJ          -4.23549         2.68797         4.16483
LJ          -4.46163        -6.31464        0.394345
LJ          -6.20539        -6.17339         6.24596
LJ          -1.74275         -3.1442        0.997954
LJ           1.29867        -4.77706         5.92913
LJ          0.845969        -3.35468         1.05663
LJ          0.481239         3.53453         3.78307
LJ            3.7641       -0.999674         -2.1134
LJ           1.84894        -2.97041        -1.19033
LJ          0.421728        -3.21087         2.02676
LJ           -5.3169        -4.18558        -1.77446
LJ          -4.90133        0.958276        0.836187
LJ          0.485153         1.04286        0.927663
LJ          -1.34393       -0.856413        -1.32948
LJ           5.92144      -0.0856473       -0.459194
LJ         -0.302217        -2.04474         4.25205
LJ          0.482332        -2.03702         3.35008
LJ           5.23472       -0.508872        -3.36151
LJ           1.08533        0.609508        -1.45527
LJ           3.23966         2.24097        -1.59744
LJ            4.9032         3.36648        0.224328
LJ           2.93882       -0.469778         0.64393
LJ          -5.31039        0.270139        0.133079
LJ          -3.33957         2.16395        -0.71319
LJ          -0.12599        -2.36429        -3.70803
LJ          -4.05509         3.16285        -1.27277
LJ          -1.31454        0.231127         2.62706
LJ           2.47497        -5.20929       -0.291596
LJ          0.730771        -1.16973         3.81583
LJ        -0.0655766        0.680921         2.13389
LJ           3.90343        0.353997         1.64666
LJ           3.02652         1.11232         1.80783
LJ           3.52999         1.29817        -2.54154
LJ           4.03902        0.909391         2.57287
