108
#Comment!
LJ           5.23944        -3.64714        0.308104
LJ           4.77295         3.27399         1.65186
LJ         -0.121734          4.2457        -3.36233
LJ          -2.40686        -1.44439        -1.84733
LJ           2.28278         -2.1256        -3.81764
LJ          -4.40228        -6.11917         5.37381
LJ          -3.68078         -1.0379         6.13208
LJ           6.11838         1.76602        -1.62908
LJ          -3.21457         6.41655        -5.32023
LJ           -3.3108         5.01156        -4.81005
LJ          -1.46601        -6.16881        0.666216
LJ           2.84616         5.75139         2.57114
LJ          -1.78889        0.688504        -5.51135
LJ          -2.50903        -5.09798        0.439924
LJ          -0.68871          1.2267        -5.24333
LJ          -3.38759         6.02346         1.58048
LJ           4.41841         -6.4354         1.81906
LJ           1.72733        -3.70954         5.62272
LJ           -3.9989        -4.59977        -3.96495
LJ           4.53519        -3.55969        -3.33175
LJ          -6.24582         1.73563        -3.55138
LJ           2.33631         5.42965         5.42217
LJ           1.23747         4.10197        -3.68207
LJ          -4.62288        -1.18736         1.41823
LJ           1.95416        -4.69167         2.73714
LJ          -2.98955        -3.08563         5.55138
LJ           4.68888        -1.66819         2.23666
LJ          -2.19841        -4.57755          1.8122
LJ          -6.33519        -3.83786         2.64879
LJ           5.26974        -3.00589        -6.23266
LJ          -6.38184         5.76353       0.0155771
LJ          -1.38129      0.00789396      0.00468074
LJ           -4.5265       -0.262275       0.0172081
LJ           2.17878        -3.91901         -1.5827
LJ          -1.21306         -4.5246        -2.27846
LJ           2.19125        -5.61641        -2.27574
LJ          -3.32961         3.12576         6.37368
LJ          -2.91037          1.1508        -2.14388
LJ            2.5069        -6.17384        -2.93406
LJ           5.95992         4.66784         6.45373
LJ           5.30689        -5.42529         1.28837
LJ           5.96432        -4.82598        -2.43232
LJ           4.17636         4.15048        -3.19731
LJ           2.43025         4.84322        -6.01685
LJ           -1.0499         1.78626       -0.294282
LJ          -2.56349        -2.17171        0.920876
LJ          -1.23579        -4.00606          3.3549
LJ           2.31582         5.85952       -0.259176
LJ           2.76147         4.53154         2.68258
LJ          0.410027         1.32562         2.51914
LJ           3.43237         3.43447         -3.5537
LJ           2.32981        -5.08646        -4.80169
LJ         -0.462592         6.25923        -4.64996
LJ           1.69444        -0.61287        0.754434
LJ           5.83204          3.7267        -6.08457
LJ          -5.52335        -6.17581         2.98588
LJ          -1.96607        -4.76031        0.582853
LJ           2.16944        -5.79709        -1.42868
LJ           5.97561        -4.38389        -3.31365
LJ             3.489           5.525         4.53442
LJ           4.51877         5.10177         3.51243
LJ        -0.0337617        -1.07744         2.91663
LJ           5.42542         1.71269         5.89903
LJ           4.64134         4.90907        -1.38484
LJ           1.80449        -3.99559        -4.82935
LJ          -4.54029        -1.05407        -5.60059
LJ          -4.55132        -1.86676         3.22006
LJ            2.6779         3.78397         5.22932
LJ          -1.43471         4.88095        -5.12466
LJ            -3.203        0.208407         6.44068
LJ           2.62625         1.64959         3.19935
LJ           2.92014         6.16713        0.371844
LJ           3.79989         5.94286         3.93441
LJ        0.00277028        -4.18172        -1.50446
LJ           2.51995        -3.36968         3.46132
LJ           6.03258         6.21838       -0.348958
LJ            5.9548        -4.09843         1.77686
LJ          -4.74384        -3.77232        -2.01006
LJ            3.9398         2.30713         2.05225
LJ           2.04863         3.29625         4.02539
LJ          -1.99373         -1.4062         6.32243
LJ           5.63348        -5.32055       -0.466146
LJ          -6.23981         0.12567         3.75884
LJ           5.97633        0.514797         -1.0244
LJ          -3.88883        -2.67223         3.67389
LJ          -2.77679        -2.84413        -2.02585
LJ           5.61632         4.44184        -3.37614
LJ          0.344158         1.63986         2.23711
LJ           6.41035         5.29204         3.78806
LJ         -0.713109         4.83216         4.18071
LJ            5.9007        0.486252        -4.82529
LJ          -5.56556         3.70845        -5.47218
LJ          -5.77645        -2.92761        -4.74821
LJ           3.60984       -0.633219       -0.283321
LJ          -2.73576         2.55979        0.404642
LJ          -5.58094         3.77292         5.77767
LJ          -4.44127         1.38541         1.90981
LJ          0.477711         5.73537        -5.90778
LJ         -0.440161        -1.98056         3.54055
LJ           3.79827         1.09922        0.868123
LJ           3.91275         3.41946         6.01153
LJ          -2.83058         5.30336         5.47841
LJ          -2.45276         2.34205         0.50651
LJ           2.66002        0.074842         4.23275
LJ           4.59961        -5.11492        -5.62431
LJ          -6.08074          4.4284          5.0683
LJ          -3.04448         1.22038         5.30889
LJ           1.61971          3.4153         5.97495
