108
#Comment!
LJ          -4.83548        -4.66221        -3.45069
LJ          -2.40242       -0.743688        -3.55601
LJ          -3.33131        -1.76642        -2.26666
LJ         -0.267602        -4.98091       -0.525828
LJ        -0.0720346        -3.06662        -3.00635
LJ           1.92726         -3.2502        -5.46116
LJ          -1.72712        -2.27374       -0.783312
LJ         -0.224302        -1.86004        -2.75569
LJ           3.89625        -2.72847        -4.30396
LJ          0.647015        -2.45078        -2.64007
LJ            1.7917        -4.74434        -4.28398
LJ           1.97314        -3.69442         -1.4255
LJ          -3.76639         -0.7977       -0.991718
LJ          -2.08176        0.281952        -3.71384
LJ          -2.38572         1.25166        -1.64033
LJ          -3.14452        -3.64958        -1.08689
LJ          0.469239        -0.65406         -2.8068
LJ          -0.30006        -1.27468        -3.75753
LJ         -0.532803       -0.906773        -1.47915
LJ           1.18985        -1.19959         -1.9355
LJ           1.41008        -1.66239        -3.30895
LJ           1.54081      -0.0473135        -3.29373
LJ           2.36446        0.591038        -0.68939
LJ           4.13899       -0.602827       -0.730925
LJ          -3.90122        0.840119        -4.62876
LJ          -4.44242         1.45012         -3.3995
LJ          -3.12052         1.13902        -3.30267
LJ         -0.887211        0.445539        -3.25377
LJ          -3.52845         1.35871        -5.65941
LJ           -2.8289         1.77545         -4.7153
LJ          -2.36499         1.88835         -3.0874
LJ          0.107295        0.597974        -3.00463
LJ           1.22868      -0.0371051        -1.33298
LJ          0.408654         1.76154        -3.64759
LJ         -0.510953         2.61839        -1.67638
LJ           2.42381         1.29102        -2.32944
LJ          -1.84675         -5.2286        0.768027
LJ          -1.15608        -2.88943        -1.73262
LJ          -3.16091        -5.29914        0.313922
LJ          -1.72147       -0.626003        0.115545
LJ           0.86612        -3.11701       -0.850241
LJ          -1.23795       -0.609153        -3.12709
LJ          -3.22508        -1.53366       -0.157454
LJ         -0.353779        -2.16871       -0.277996
LJ          0.245864        -1.49044        -1.41966
LJ           4.82704       -0.540914        0.426012
LJ           1.95906        -1.51172        -1.20915
LJ         -0.159819        -3.04757         1.06951
LJ          -3.92089       -0.921921        -2.55227
LJ          -2.13005        0.354929       -0.849713
LJ           -5.3804         1.27693        0.700938
LJ          -4.95366       -0.594646        0.468908
LJ          0.864992         -3.7641        -3.91159
LJ          -1.03008         2.03853        -1.01244
LJ          -1.18402        0.216039       -0.422469
LJ          0.224773         -1.1808         1.16253
LJ           5.62688        -2.07305        0.319254
LJ           3.30214        0.784352        -1.68571
LJ         -0.881465          -1.512       -0.738361
LJ         -0.133956       -0.528717       -0.103024
LJ          -3.68513         2.86657        0.807107
LJ           -1.8798         2.56736         -2.0775
LJ          -5.94759         4.27945       -0.394189
LJ          -2.82935       -0.198996        -0.32377
LJ           -2.2493        0.493211        0.230663
LJ          0.228196         3.42116        -0.55599
LJ          -1.32319         3.18019       -0.522537
LJ          0.515633         1.97528        0.162585
LJ          0.590741        0.214148      -0.0415169
LJ          0.422046         4.65911        0.464614
LJ          0.411647         0.92812         1.50194
LJ           1.20256          3.5843       -0.345177
LJ          -1.77297        -1.59162        0.688423
LJ          -2.04983        -1.60016         1.75543
LJ          -2.67773       0.0415664         3.45108
LJ          -3.02582        -4.07003         1.01814
LJ           1.45806        -4.69825         3.59497
LJ          -1.56421         -3.1264         0.88386
LJ          0.278629        -1.12061         3.73853
LJ          0.894205        -2.76488         1.54862
LJ          0.765489        -5.14907         1.85363
LJ            3.0361        -1.86094       -0.588212
LJ           1.64056         -2.8337        0.821319
LJ           1.73372        -3.94212         1.70854
LJ          -3.31108        -2.65518        0.360454
LJ          -4.13874         0.60369      -0.0205827
LJ          -1.60043         1.25301        0.975239
LJ          -2.63041       -0.872619        0.511464
LJ          -3.28714        0.252456        0.755351
LJ         -0.629095       -0.872482         2.41823
LJ          -2.02536        -1.14041         2.83518
LJ           2.12921        -1.13419         5.04851
LJ           1.00451         -1.7582        0.133103
LJ           2.82973         1.66513       -0.792958
LJ             2.438         2.06489         2.23776
LJ           1.54929       -0.161465        -0.42996
LJ          -3.17867         1.29394        0.482881
LJ          -2.28983         1.92344         0.55248
LJ          -1.59057       -0.167086         4.36083
LJ          -1.58179           1.537      -0.0892481
LJ         -0.176719        0.181826        0.716655
LJ          0.776224         3.35215        0.543075
LJ         -0.279085         1.47618         3.24087
LJ         -0.400962        0.306792         3.07245
LJ           2.57237         1.42447        0.937962
LJ           2.78285        0.456977         1.60341
LJ           1.08123         0.56302         4.52712
LJ           3.31247        0.713057         3.10637
