108
#Comment!
LJ          -3.60397        -4.86067        0.979975
LJ            5.1163       -0.768283        -5.59779
LJ         -0.138702       -0.074669          -3.608
LJ           4.55778         2.86545        -2.68335
LJ           5.85059        0.782364         3.66849
LJ            1.6077         6.03983         0.85014
LJ           5.89187        -3.86913         2.41862
LJ           4.15984        -4.44483         3.84392
LJ           1.31773        -4.18889         -5.5901
LJ           5.23766         1.17639          2.5864
LJ           1.74815          1.3548        -5.63104
LJ         -0.820926          3.4066        -5.64375
LJ           6.34187         2.97005         6.39246
LJ         -0.307496         1.07369        -4.20039
LJ          -6.19907        -1.96137         5.79733
LJ          -3.22746         2.35506        -4.11513
LJ           3.15665         5.94439        -5.17469
LJ          0.708608         3.54626         2.15962
LJ           5.48254         2.64286         4.49355
LJ          -4.08691         3.47619        -4.41043
LJ           2.73915        -4.43497        0.894095
LJ           3.27658        0.531053        -5.32137
LJ           2.21241         3.69748         1.24699
LJ           4.78677        0.351063        -1.28601
LJ           6.06379        -3.02832       -0.826641
LJ          -2.77719        0.270213        -6.05674
LJ          -2.40448        0.904969         2.79044
LJ           2.22881          3.0849        -4.75565
LJ           3.39733         4.67516        0.185129
LJ           -2.7638          2.8387        -2.77778
LJ          -4.80781         -2.1741         1.10564
LJ         0.0357524         5.40032         4.23788
LJ           3.64216        -4.62554        -4.83705
LJ           1.69288         1.09781        -3.22822
LJ           3.73875      -0.0736384         1.10302
LJ           4.91328        -4.41923        -3.14636
LJ         -0.821514         4.43955         5.95044
LJ           4.23799        -3.49254        -6.23819
LJ         -0.162696         5.54337       -0.720282
LJ          0.831225         1.67836        -3.76667
LJ        -0.0746379         4.09253         5.39166
LJ          -3.55382        -2.76317        0.142956
LJ           1.59584        0.610023        -3.91408
LJ          -1.52681         1.32556        0.137158
LJ           3.91664        -2.32966        -4.14819
LJ          -2.22769         4.74673         2.37677
LJ          -2.93774        0.362597         1.43733
LJ          0.890103        -3.32398        -4.33651
LJ          -3.28809         3.14705         4.69006
LJ          -2.20862         2.29072         4.64633
LJ          -1.26768        -1.87652         5.65024
LJ           6.40103        0.227612         1.40328
LJ            3.9563         4.81868         -2.9299
LJ          -3.34931        -5.72478        -1.49804
LJ          -6.07814        -5.35613        -3.16602
LJ          -3.47677        -4.17511        -4.58667
LJ        -0.0078702        -3.40477         1.08168
LJ          0.736041       -0.424625         4.32859
LJ           4.87258         2.89424         3.19393
LJ           1.88607         5.78246        0.265136
LJ          -6.31701         2.01641         1.44246
LJ          -1.10546        -2.88142         4.72218
LJ           2.64922       -0.690921        -1.02332
LJ           5.69049         3.19282        -3.71757
LJ          -2.73653          5.2805         4.81156
LJ           5.55254        -4.19801        -6.39346
LJ          -6.29638        -4.95328        0.149387
LJ          0.131575       -0.940882        -4.52121
LJ          -4.19439        -1.32429          4.5917
LJ          -1.34274       -0.254083        0.997169
LJ         -0.977291         3.90973         2.71072
LJ          -5.28431         3.82593         -0.4384
LJ           5.85047        -2.00167        -1.66804
LJ         -0.915698         3.06383        -4.25343
LJ           2.74168        -4.66083       -0.465845
LJ           3.47355         6.43578        0.928475
LJ           2.99011        -6.43147          5.5449
LJ           1.65726        -4.65607         2.40281
LJ          -2.30903         4.47546        -4.18408
LJ           5.09205        -3.31729          1.0608
LJ           4.05898       -0.256602       -0.417741
LJ           -6.1199         -3.2747         3.14949
LJ        -0.0822983          2.7067         3.03131
LJ           6.45065         2.57249         4.58202
LJ          -5.61066        -3.51241          4.1425
LJ          -4.72064        -3.15033         5.19731
LJ          0.920581        -4.70247        -5.98214
LJ            5.0149        -4.18973        -3.94059
LJ          0.996636         2.41782         1.32365
LJ          -1.71931          3.4501        0.411218
LJ         -0.431318        -3.13107         -2.8573
LJ           4.47664         4.91491        -2.03598
LJ           5.20251         5.98344       -0.597368
LJ          -4.99444        -1.05713        -4.58232
LJ          -6.02538        -4.99633         -4.1971
LJ           3.79616        -6.12944        -3.96331
LJ            6.3748        -5.90261         5.37771
LJ         -0.618946         3.27215         2.63305
LJ          -3.41819        -4.85052         4.20116
LJ          -4.44147        -3.15764       -0.420468
LJ           5.19589         2.40943        -3.05152
LJ           3.91801       -0.793042        -2.09324
LJ           1.31095        -2.75018        -1.86171
LJ           5.32808         5.59129        0.558226
LJ         -0.668319         4.68784         1.11446
LJ           3.41182         3.65342         -3.2624
LJ          -5.35246        -4.63868        -3.39547
LJ          -2.85025        -3.73141         5.63338
