108
#Comment!
LJ           4.11103        -3.46958         6.32908
LJ           4.32563        0.957226          4.4333
LJ           -4.0305        -5.29549         -2.4286
LJ            4.7651         2.14636         5.36573
LJ           3.21693         -3.9342        -4.42871
LJ           1.05021         1.71413         1.40727
LJ           2.61296         5.15821        -4.92432
LJ           5.86901        -5.10347       -0.367418
LJ         -0.825713         2.52523          3.6527
LJ           1.06982         1.81093        -3.62423
LJ           -4.7608        -4.92845         5.82145
LJ          -1.36207         -4.0956        0.756472
LJ          0.221263         1.63881         2.17986
LJ          -3.79893        -1.84787         3.72472
LJ          -2.94257        0.786606         1.34979
LJ          -2.25851         3.95318        -4.02915
LJ          -4.17712         2.50731        -2.46081
LJ          -2.51687         -3.6351        -3.19932
LJ         -0.856103          2.6062         2.57958
LJ            2.8004        -5.55023        -4.83223
LJ          -2.78571        0.318001        -1.29073
LJ           -3.6463         2.31041         1.22889
LJ          0.996253         1.99223         1.50018
LJ          -4.16086         2.25076        -1.59498
LJ           4.28144        -6.34579        -6.06421
LJ           1.94748        -2.66348        -3.94286
LJ           6.21679        0.778289        -5.49424
LJ           2.15561        -2.36112         0.14041
LJ        -0.0125075         -3.8557          6.3874
LJ           6.42742         6.34203       -0.275786
LJ           4.84817         5.69329          3.0982
LJ          -4.92845         2.57378        -2.77701
LJ         -0.250968        -3.14259         1.63839
LJ          -5.82884        -2.00884        -2.78782
LJ           3.88956        -1.55471       -0.918441
LJ           5.47607        -6.30771       -0.654626
LJ           4.61019         6.32539       -0.270453
LJ           4.63063         4.57433           0.207
LJ           3.71096         2.06359        -2.48894
LJ          -2.36219        0.185098          2.8085
LJ           5.59941       -0.949926        0.815835
LJ           2.53775         2.33248         2.47035
LJ           2.72477       -0.405766         4.56206
LJ          -2.42343        -3.75365         1.82235
LJ           1.52997         3.77386       -0.606406
LJ           5.04365        0.244099         2.87937
LJ           1.45619         1.82858        -4.58065
LJ         -0.855226        -5.26996         1.76134
LJ           1.41951        0.966729         4.75224
LJ           5.90162        0.289882         -1.6051
LJ           4.75968         5.95783         3.90953
LJ           0.35143        -2.85133         6.09692
LJ           4.85519         1.55105        0.243802
LJ          -0.15154         3.20558        -3.97235
LJ          -2.66849        -1.45384        -3.48959
LJ         0.0585686        -3.18113       0.0366438
LJ           2.58989        -3.06359        -5.44807
LJ          0.412648        -5.85179        -1.21481
LJ           5.75075        -1.41343        -1.58957
LJ          -1.05809         6.39513       0.0162354
LJ          -2.39012       -0.592582         -2.2548
LJ          -1.87005        -5.92893        -4.61193
LJ          0.122815        0.592986         2.23677
LJ          -2.30516        -4.86999         4.14866
LJ           -2.7402        -5.65771      -0.0871369
LJ           4.39503        -1.10954        -3.44555
LJ            3.1276         4.64154        -1.82187
LJ           1.46914        -1.26539         2.09906
LJ          -3.03512         1.11524        -5.85207
LJ          -2.62185         2.77699        -4.39812
LJ          -1.44533        -4.33785         2.20027
LJ          -6.13298       -0.302584        -4.18288
LJ           1.94647        -4.37295         3.02068
LJ           3.97561         -1.1079          5.2154
LJ           2.60676       -0.940185        -5.90067
LJ          -1.84798        -1.82092         -6.3307
LJ           5.12415        0.672865         1.68938
LJ           -4.2464         5.83963         2.15079
LJ          -4.79354         3.53795         -3.3993
LJ           5.03705        -3.55156         -5.5085
LJ           5.76037         2.33745         5.58322
LJ         -0.472507        -4.17148        -6.10075
LJ          -6.13102        -4.47007        -2.06681
LJ          -5.45484         4.69945         0.50502
LJ          -4.99756        -5.71693        -3.24042
LJ          -5.48359        -1.52902         4.50673
LJ           2.86313        -5.38214        -1.73911
LJ            4.8338        0.885913      0.00234535
LJ          -1.91772         1.95532        0.894216
LJ          -2.42091         2.67834         2.68591
LJ         -0.439109         5.02248         2.82632
LJ        0.00168346         1.05216           -2.65
LJ         -0.209325         5.55578        -2.32044
LJ           2.73046         4.14135        0.287244
LJ           1.32144        -1.46204         1.84481
LJ        -0.0741787        -5.15295        -2.66576
LJ          -3.00341         5.75086        -3.37568
LJ           6.15521        -6.01861         3.66563
LJ          -5.20306         1.84851         2.33711
LJ          -2.79078         4.77266         4.98028
LJ           1.49345        -1.94974         2.30123
LJ          -2.08812       -0.929562       -0.847005
LJ          -6.30358         2.55574         1.06912
LJ          -3.68218        -3.11063         4.70397
LJ            1.0325        -3.53678        0.788893
LJ          -5.33886       -0.988148         2.81113
LJ           4.71294        -4.55481        0.521058
LJ           3.54913        -1.42866        -6.31923
