108
#Comment!
LJ          0.944401        0.308494        -2.64924
LJ           4.22347        -1.16885         3.71032
LJ           3.61046        0.248329        0.551667
LJ           4.69454         2.42788        0.439668
LJ          -4.12785        -5.61683        -5.34511
LJ           3.84995         3.73239        0.607388
LJ          -2.88851        -0.51753         3.92231
LJ           4.30941        -1.94482        -4.26939
LJ          -2.32816         2.81657         2.03607
LJ          -3.69407       -0.234077        -6.03341
LJ          -2.55199        0.114697        -5.24032
LJ          -3.40213         3.47276        0.632308
LJ           1.13796         6.33861       -0.673839
LJ          -3.99644        -2.03005       -0.641767
LJ          -1.90102         1.76371        -5.22611
LJ          -1.11053        -2.45415         2.97634
LJ         -0.883288        -3.47245         6.31208
LJ         -0.779924         5.19956        -5.17058
LJ          -2.44735        -2.94004        -5.87479
LJ          -4.02171         4.94664          -6.132
LJ          -2.20644         1.58401         1.50765
LJ           3.54081         5.75365        0.904227
LJ           6.12846         1.14425         -6.0673
LJ           1.02427        -4.13449         2.67115
LJ          -2.92087        -2.04175        0.164287
LJ           6.09247         6.02279        -1.24978
LJ          -5.46589         6.37596       -0.837461
LJ          -5.16772       -0.765699        -5.10332
LJ          0.748673         5.73022         1.17582
LJ           1.36649       -0.320062         3.74024
LJ           1.61328         4.12184        -4.13553
LJ           3.39674         6.19109     -0.00275998
LJ           5.41608       -0.691369         4.57007
LJ           3.52436        -2.78793         -2.0589
LJ           5.53067            5.18          1.8354
LJ         -0.381005        -1.37131        -4.50075
LJ          -3.94941         6.42537         5.12531
LJ           -4.1197        -0.19529         1.74157
LJ          -1.28956       -0.628369         5.48637
LJ           -5.6729         4.51053       -0.702904
LJ           5.63432        -3.06358        -2.45757
LJ          0.892699        -4.60822         4.03832
LJ           0.21866        -2.56928         -1.4355
LJ          -3.04166       -0.113427         2.35181
LJ           4.79443          3.7655         5.79072
LJ           5.68178        0.656982      -0.0831333
LJ          -5.09367        -3.35761        -2.38465
LJ          -3.30246       -0.800207         5.99092
LJ           2.80449        -1.36781         5.16831
LJ           5.05069        0.301758        -2.34844
LJ          -1.85176          -3.584        0.200632
LJ           -2.5673        -6.31992        -3.30172
LJ          -3.41338         5.33273        -2.55434
LJ           3.44083         4.81195       -0.109433
LJ           2.20923         5.80061         -2.1344
LJ          -3.44564         5.56202         5.67775
LJ           4.12351         3.14352        -3.65594
LJ           -4.2916          4.8323        -2.27783
LJ           3.16861        -4.89862        0.167074
LJ          -3.77003        -6.02208        -0.68831
LJ          -1.83301        0.228461         6.23844
LJ          -2.88466         4.03792         2.15308
LJ          -5.17795         6.03243          6.0516
LJ           4.52192        -6.44265         1.11319
LJ           5.89343         6.15436         1.96426
LJ           3.14711         6.45669        -1.53514
LJ           3.70437        -2.55045       -0.563149
LJ           1.54448          2.7891        -4.39982
LJ           5.55271        -1.84166        -2.65148
LJ           1.98147         3.59217         2.73848
LJ           -1.1849         1.14759          1.3002
LJ          -3.74242         -1.2653         2.15444
LJ           -6.3489         -3.6404        -2.39966
LJ          -1.89375        -3.63575          6.2163
LJ           -4.6518        -3.09873        -3.86047
LJ           1.96864        -1.59987       -0.635819
LJ           4.48899         2.67039         6.18703
LJ          -1.81029        -1.88431         4.49675
LJ          -5.48967        -6.44601        -4.06986
LJ          -2.41788         -4.0073        -5.90617
LJ          0.562218       -0.615777        -4.90395
LJ           4.17259        -1.41902        -3.02951
LJ           3.41402      -0.0191773         -1.1375
LJ          -2.28262       -0.843411          4.8863
LJ          0.806102         4.88707        -6.24478
LJ          -3.66222       -0.463712        0.265731
LJ          -1.70016         1.20556         2.28543
LJ          -5.08099         3.87357         6.45332
LJ           3.92012        -1.29689        -1.54402
LJ           1.80783         5.52259       -0.832268
LJ          -5.32932         4.18314         4.32611
LJ           6.07144      -0.0993618        -2.54632
LJ          -4.79386         4.87508        -4.76299
LJ           1.92343         1.55582        0.856344
LJ          -4.33966        -5.91449        -3.79258
LJ            4.5585        -2.45331        -1.72038
LJ          -2.49812        -1.75738         3.21307
LJ         -0.835458        -5.01836         4.02312
LJ         -0.696487        -4.66378        -5.24105
LJ            6.2037         5.06204        -1.19607
LJ          -2.32188        0.271271         1.36955
LJ           2.46656        0.358175       -0.226923
LJ           3.77348        0.950894        -3.78604
LJ          -1.23894        0.305463        0.315079
LJ          -6.09402         2.90547         1.51048
LJ           4.48943         3.63929         1.88682
LJ           -2.5029        -3.59938        -1.97561
LJ          -5.71176         1.44476         6.34386
