108
#Comment!
LJ           -1.5553        -2.59207         5.28215
LJ          -3.07842        -4.32547         3.92543
LJ          -4.73936         3.06415        -3.00762
LJ            3.5436         1.51392        -3.92841
LJ           5.02844        -4.72383        -1.25043
LJ          -5.89402         1.15674       -0.998116
LJ          -4.27618        -3.34282          4.0274
LJ          -3.51131       -0.764615        -1.03837
LJ           6.01114        -5.17962        -1.64942
LJ          -2.06663        -2.82548        0.292368
LJ          -5.98981         2.40112          5.7982
LJ          -3.74708         4.70694          1.9572
LJ           2.68932        -2.32232         3.96663
LJ         -0.679022         3.81376         3.39784
LJ           1.00655         6.37028         2.28606
LJ         -0.920012       -0.108063         4.03258
LJ          0.122224         4.46802         4.68183
LJ           1.44671          4.2322         1.85818
LJ           -3.5916        -3.85813        -4.54809
LJ          0.730418         2.60865       -0.798475
LJ           3.19386         4.09146        -6.12436
LJ          -5.70738        -3.72604           1.012
LJ          -4.64401         1.44593         6.27395
LJ           2.44497        -1.15124        -3.64721
LJ           5.17242       -0.809577         -4.7594
LJ           6.13713         1.70047         1.13308
LJ         -0.754215         1.97884         3.30903
LJ          -6.04066         5.02616       -0.597896
LJ          -2.47103        -1.17103        -4.94962
LJ           3.86085        -1.68736        -4.17818
LJ           2.30076         2.91892        -3.07182
LJ           1.77372         -4.3376         4.56767
LJ          0.797671         1.54976        -3.35122
LJ          -1.40834        -1.33501        -4.77828
LJ          -6.00169        0.199393        -1.39417
LJ           1.69378         2.44209         2.21334
LJ          -2.66449        -1.48314        -1.57692
LJ          -3.91751        -4.11753        -5.04933
LJ           5.85019           4.716        -1.43138
LJ          -2.18637         6.45052        -1.43575
LJ           6.10886        -6.42757         3.32151
LJ          -3.76293        -1.77251         2.47868
LJ          -4.09572        -6.20127         3.08133
LJ         -0.858584         5.29357         6.44333
LJ           3.20567         -6.2829        -1.89696
LJ           3.06633        0.920848        -4.42276
LJ           2.73577        -4.09544         -1.5584
LJ           2.49295         4.18605        -5.09513
LJ         -0.389285        -5.21853       -0.720344
LJ           5.75193         4.78807          4.9073
LJ          -5.50459         3.88747        -5.36198
LJ           1.66464       -0.448174        0.199562
LJ          -4.36134       -0.261616         0.19524
LJ          -5.64658        -6.43081        -4.68411
LJ         0.0511162        -2.05855          5.8078
LJ           3.69631       -0.488886         5.59829
LJ          -4.50251         -1.1668        -2.91122
LJ          -5.94191        -1.42032         5.67145
LJ          -1.10703         4.34334        0.580923
LJ          -4.51972        -4.20264        -2.49688
LJ          -3.81276       -0.908817        0.828546
LJ           0.87106       -0.837764         4.72113
LJ          0.552825         6.25523         5.93059
LJ         -0.691776        -2.08917        -4.61603
LJ          -2.57728       -0.234033        0.145532
LJ           2.66281        -1.48639         3.02155
LJ           2.96624         6.32842        -4.73342
LJ           4.32697         3.87489        0.433111
LJ          0.923698        0.206362          4.5869
LJ           1.38741         -1.7667         2.39546
LJ         -0.126632         5.74936         5.44974
LJ           6.46076        -5.90518        0.124654
LJ           1.87342         3.32499         1.94316
LJ          -2.24027         6.25594         1.19781
LJ          0.637133        -6.16375         -5.0119
LJ           1.16502       -0.111161        -3.33648
LJ           -6.3174         4.95338         -4.0166
LJ           3.55972        0.772975        -3.45919
LJ          -5.00912        -2.05867         4.37286
LJ          -6.08122       -0.749058        0.537356
LJ           1.46207         2.13924         2.79684
LJ          -6.45445        -3.78221         1.62348
LJ          -2.88312        -1.59476         -1.8272
LJ         -0.102225        -2.31721         1.36691
LJ          -5.39056        -2.92952        -2.50824
LJ           2.78365        -3.52354        -2.75672
LJ          0.576513        -5.47958          3.7094
LJ           2.37848      -0.0479495        -4.32555
LJ           5.26063       -0.246787         4.66979
LJ           4.22471         2.20232       -0.140227
LJ           1.62842        -1.15835         1.83051
LJ          -4.76444         -6.2726         1.17235
LJ         -0.957281       -0.332187        -5.04501
LJ          -3.79095           2.218        -1.66853
LJ          -2.46921         4.43932         4.22604
LJ           2.05517         5.31468         4.36531
LJ          -3.51956         3.78557        0.314281
LJ           2.02282         4.73208         3.59669
LJ          -0.38254         5.08283         1.76453
LJ          -4.20977        -3.74244        0.333344
LJ          -5.12972         5.14102         -1.9514
LJ           3.66206        -1.27997        -1.76247
LJ           5.79234         2.83191         3.74742
LJ          -5.98544          2.5054         1.85103
LJ          -6.15433         1.07989        -2.90963
LJ           4.05493         5.53259        -1.72328
LJ          -1.80495        -2.02868         0.20937
LJ           3.86109         1.54221         3.45006
