108
#Comment!
LJ           6.02566         6.01902       -0.169635
LJ           5.96593         -2.1293        -3.63801
LJ         -0.389926         5.61934         -5.4867
LJ           1.86602        -4.41884         4.49176
LJ          -4.06511         3.06211       -0.595148
LJ          -3.18781         1.93334        -6.37369
LJ           3.29216        -1.73356        -4.90849
LJ            3.1178        -5.37079         4.52202
LJ         -0.471663        -5.74368        -1.40379
LJ          -3.49299        -3.17186         2.81724
LJ            2.1337        -4.58401       -0.737311
LJ           6.44057         1.02903         -6.2609
LJ          -4.42766        0.537096         2.45845
LJ          -5.56491       -0.462528        -2.89163
LJ          -5.64634        -3.63266       -0.935146
LJ          0.942204        -1.33858         4.03029
LJ           5.02294        -3.32791         2.16292
LJ          -4.27058         5.82454        -5.63837
LJ          0.813882        -4.62375         5.76894
LJ          0.903869         4.57204        0.290443
LJ          -4.72272         3.45994        -6.23747
LJ          -1.87381         5.26579        -4.83735
LJ         -0.861223         3.91769          5.2293
LJ         -0.254041         1.38229        -1.24863
LJ          -6.33624          6.2806          1.5747
LJ           4.78618       -0.627459      -0.0424688
LJ          -1.25495        -5.72107       0.0663154
LJ           -1.8362        -6.41632        -1.64422
LJ          0.353045        0.979584         4.73201
LJ           4.13663          5.9867         1.32488
LJ           0.44622        -4.69502       -0.431929
LJ          -4.63838         5.14568         0.21411
LJ           5.71437          1.6588        -2.21781
LJ          -5.64203        0.378649        -4.90398
LJ           5.97384        -5.03538        -1.09711
LJ          -1.17655        -4.25338         5.39326
LJ          -3.96591         2.20401         0.57434
LJ          -4.47791         1.05275         5.36528
LJ           2.38271         2.81689         3.85896
LJ           5.48677         -4.3516           5.791
LJ          -3.00785       -0.852883         3.60709
LJ          -6.30728        0.937304        -2.90234
LJ           -2.2151        -1.36088        -1.78058
LJ          -2.86268         4.96854        -2.20184
LJ          -3.89073         4.92592         4.99677
LJ          -4.06101         1.74909         3.28632
LJ           3.25373        -1.60541         -1.2419
LJ           2.86412         3.68465        -4.49235
LJ         -0.774217         5.21812         1.73719
LJ          -4.88724          5.5614        -3.97736
LJ           5.83963        -3.72443        0.401427
LJ          -0.71082         3.99179         3.37907
LJ           3.37749         4.14068         6.40372
LJ           2.13944         4.57357         3.82736
LJ           2.23493        -6.21181        -5.41652
LJ         0.0377704         5.14363          5.9891
LJ         -0.123946         4.79865        -5.83962
LJ          -3.54817         -6.2661         1.11311
LJ          -5.20226        -2.52803          3.6728
LJ          -3.10875        -1.96529         5.27296
LJ          -6.41488        -6.17669        -5.45928
LJ         -0.395121         4.06041        -2.46326
LJ          -2.00357          1.0101        -4.20026
LJ          -6.18123        -4.48298        0.956604
LJ           4.97475        -2.30186        -2.41283
LJ          -4.38442        -5.26083        0.358007
LJ           5.43438        -1.70799        0.375132
LJ            5.8582        0.950702       -0.567925
LJ          -1.57649         1.82009         2.80689
LJ           5.00463        -2.44054        -3.35358
LJ           5.66963        -2.74421        -2.78207
LJ           -1.0322        -3.58845         6.01443
LJ          -2.91697         4.49372         2.82977
LJ           4.49574        -6.24599         2.86796
LJ          -4.95492        -4.77682         6.42925
LJ         -0.983966         3.50054        -3.95431
LJ           2.67933        -1.57046        -4.65914
LJ          0.954616         1.40296       -0.657333
LJ          -5.59098        -6.00848       -0.289881
LJ           -5.7928       -0.160246         2.61581
LJ          -5.05054         -3.9577       -0.621784
LJ         -0.909509        -1.11345        0.704813
LJ          0.133504        -1.86783         2.43863
LJ          -1.36215         1.60426         5.28177
LJ            6.1743         1.13836         6.02473
LJ          -4.09266        -6.01335        -2.40838
LJ        -0.0495648         4.24228         2.13827
LJ           2.38799       0.0747816         5.56479
LJ           4.05022         6.35273        -3.28462
LJ            5.7677        -5.90996         -3.4564
LJ           2.44983        -6.39706       -0.509968
LJ           0.95136        -5.30723        -6.39537
LJ          0.671738        -2.25397        -1.90292
LJ          -2.48801       -0.623179        -1.35644
LJ           3.20536         0.68676        -5.94561
LJ          -4.50231        -3.08109          3.7015
LJ           -5.3929        -1.89249        -5.64667
LJ          -3.28213        -2.51772       -0.698156
LJ          -3.37822        -2.09125         4.49803
LJ           4.92553         4.13546        -6.38328
LJ          -1.65852        -5.51611        0.131952
LJ            5.5912        -3.09123        -5.93424
LJ           5.22602        -1.30148         1.86801
LJ           2.66417         4.75166         5.58833
LJ           1.74686        0.575953         4.83398
LJ          -5.59331         0.79679         5.99903
LJ          -2.78735        -5.84907        -4.90417
LJ           4.80093         4.02271        -4.64732
