108
#Comment!
LJ           4.90029         5.59788        -4.10578
LJ          -4.17955        0.317806        -3.91298
LJ          -3.87362        -1.33692       -0.522023
LJ           1.51049          -6.371         2.61691
LJ         -0.560634        -1.50248        -3.75466
LJ           4.42762        -5.95544         4.05228
LJ          -1.01372        -2.56335         0.87365
LJ         -0.159357       -0.691683        -3.30591
LJ          -6.11008        -2.26884        -5.88004
LJ           1.54335        -2.92517        -3.95093
LJ           2.85059         6.23397        -5.86582
LJ           4.55641        -5.06258        -1.65279
LJ          -5.25182       -0.636286       -0.437775
LJ         -0.793377          3.7784        -4.07709
LJ          -1.43101         1.86194        -1.51092
LJ          -4.07511         5.45638       0.0857386
LJ          0.969028        -1.60664        -3.99565
LJ          0.411578        -1.28691        -5.79579
LJ          -1.93796       -0.642803        -2.07172
LJ           2.16752       0.0256984        -0.70094
LJ          0.382111        -3.29922        -4.26247
LJ           1.81198        -1.80625        -5.83502
LJ            3.6674         2.05537         1.95047
LJ           6.36066        0.113138         2.34954
LJ          -6.37863       -0.738822        -6.05665
LJ          -4.42436       -0.718718        -5.46609
LJ           -4.8248        0.297243        -5.89261
LJ          -1.71431          2.6231        -5.81714
LJ           6.37507         1.61738         5.61804
LJ           6.43207         3.48177         4.34619
LJ          -1.02454         3.36511        -3.02246
LJ           1.84159        -1.88196        -4.64618
LJ           4.01728        0.109896        -4.56614
LJ        -0.0426468         3.26171         -5.0222
LJ          0.921873         -4.9634        -4.19743
LJ           3.48679        0.437156         -2.1407
LJ          -1.78268         5.62031         2.81865
LJ          -0.13244        -1.67467       -0.436581
LJ          -2.08748           4.611         1.12774
LJ          -3.11363       -0.193026      -0.0423275
LJ            1.5235        -2.10655       -0.674372
LJ          -3.42518        -1.90723        -4.60858
LJ          -5.20915         -5.6241         1.06916
LJ         -0.641073         -3.2594      -0.0402482
LJ          0.148607        -2.54503        -1.22328
LJ          -5.58769         1.01723         1.72742
LJ           2.48661       -0.648544        -2.27455
LJ          -2.33179         -2.2984         1.00338
LJ          -5.94156        -2.31941        -3.70461
LJ          -5.42163         0.30692       -0.965021
LJ           -6.4221         2.07741         1.84326
LJ           4.66273         1.42608         3.20483
LJ            2.5435         4.32139        -5.98147
LJ          -3.35842         3.25849       -0.342101
LJ         -0.598729         2.63331        -2.17193
LJ         -0.357261        -2.61829         4.49018
LJ          -2.14377         -1.5511         5.82056
LJ           5.00984         1.07174        -2.77216
LJ          -3.02928        -3.52889        0.411479
LJ          -3.83859       -0.426228        -1.01183
LJ          -4.39681         5.34905         3.81474
LJ          -2.16901          3.9287        -4.72251
LJ           3.41378        -5.51175       -0.515928
LJ          -4.35303        0.482443       -0.577877
LJ           -3.3558         2.05242        0.733746
LJ         0.0714942         4.87346         1.44207
LJ          -2.46747         -5.5469       -0.996415
LJ           1.65099        0.795773         0.54018
LJ           2.43575        -1.13545        0.352772
LJ           1.20958          4.7865          1.8817
LJ         -0.787447        0.626745         1.49425
LJ           2.55124        -5.14608       -0.258641
LJ         -0.923284        -1.42903        0.484464
LJ          -1.39606       -0.620256         1.38806
LJ          -3.90889         2.13667         4.02302
LJ          -4.17026        -5.90088        0.389467
LJ           5.31881        -6.02813         6.18767
LJ          -1.98679        -3.38031        0.919311
LJ           1.10615        -4.03727         5.49034
LJ          0.934425        -3.16571        0.787596
LJ          0.554281         4.41912         3.54228
LJ           3.84999       -0.959465        -2.26738
LJ            1.9258        -3.15013       -0.782377
LJ          0.719545        -3.37223         2.03783
LJ          -4.90506        -3.97386        -1.36815
LJ          -4.36075         1.29866        0.610152
LJ       -0.00046939         1.01623        0.855375
LJ          -1.64632        -1.05253       -0.873863
LJ          -6.21064      -0.0159937       -0.357639
LJ         -0.303441        -1.30078         4.03416
LJ         -0.686586        -2.11761         2.89661
LJ            4.7219       -0.808057        -4.35704
LJ          0.815959       0.0498426        -1.18572
LJ           3.17897          2.0788        -1.66726
LJ           4.39135         3.16893        0.645105
LJ            2.8279       -0.284013        0.756406
LJ          -5.09341       0.0166774        0.322062
LJ          -3.20146          2.0407       -0.364316
LJ         0.0754887        -2.35591        -4.30623
LJ          -3.65187          2.8697        -1.33726
LJ          -1.21024        0.440506         2.57483
LJ           1.93136        -6.15406        0.198947
LJ          0.465531       -0.626875         3.85791
LJ         -0.200086        0.428373         2.34904
LJ           3.71867        0.201092          1.4058
LJ           2.73825        0.854251         1.93369
LJ           3.01788         1.13077        -3.30159
LJ           3.65309        0.692855          2.4264
