108
#Comment!
LJ          -3.81049         2.37566        -3.88992
LJ           3.98092          3.8571        -3.15779
LJ          0.330193        -2.86952        0.767261
LJ           4.92122        -1.00004         1.37481
LJ           4.27643         -6.2659         1.80615
LJ           5.70463         3.05461        -1.68232
LJ          0.701793        0.431165         1.49893
LJ          -0.58024         2.89279         6.19382
LJ           3.38159         5.39773         3.41782
LJ           4.58793        -5.52584        -3.59529
LJ          -4.65595        -5.34537         4.14048
LJ           5.12052          5.9204        -3.24711
LJ          -3.49564        -2.83311         2.40268
LJ           3.37037          6.1883        -2.63304
LJ           4.57781         2.97328        -1.07825
LJ           2.44069        -2.78459        -5.77799
LJ          -1.76154         -2.9842         2.11803
LJ           2.92123        -4.52841          1.9875
LJ            5.9063         2.36192        -2.46668
LJ           4.08231         3.31965         1.87444
LJ         -0.161363        -5.68038         1.83108
LJ           1.40474        -2.15781        -4.05505
LJ          -5.75109        -5.17052         4.70571
LJ          -2.08523         -1.6707         5.59859
LJ          -1.25112         2.58328         3.23702
LJ           1.58705        -3.85053        -6.19146
LJ           5.98965        -5.01496        -1.88966
LJ          -3.66637        -4.13338        -2.33989
LJ           1.17331        -4.55379         1.07588
LJ          -3.47045         5.58286        -5.60533
LJ           -1.5788          6.1026         1.24446
LJ          -2.31506        0.391144        0.368056
LJ          -1.46335        -5.90591        -1.89071
LJ          -4.10295         5.80267       0.0175964
LJ           -4.0321        -1.48117         1.60973
LJ          -1.03245         3.09538         5.74907
LJ           2.32592        -1.74654         2.68515
LJ           3.32934         2.87943        -2.84478
LJ          -3.25934         -4.1999         1.88169
LJ           5.62337        -0.72599        -0.86476
LJ          0.287644        -3.73613        -4.46189
LJ           6.01739        0.407033        -3.65399
LJ           5.22225        0.795568        -3.44041
LJ           2.68605        -2.93212         2.91601
LJ           2.01623         5.16862        -3.08942
LJ         -0.980618        0.311488        -3.16617
LJ           4.67657         3.51359          2.0216
LJ           4.16734         6.43161         4.78638
LJ          -6.05598         3.89617         6.42433
LJ           6.05622         5.76123       -0.352089
LJ          0.283705        -4.36959       -0.437304
LJ         -0.686357        -5.43096        -3.61984
LJ            3.5014         2.42135        -2.17031
LJ          0.442963         3.42506        -4.43095
LJ           2.21473        0.241481         3.17012
LJ          -5.16171        -6.37909         4.16359
LJ          0.522112         3.30852        -5.40301
LJ          -4.28478         3.03591         5.29323
LJ          -3.49986        -1.02579         4.02098
LJ          -2.29131        0.328529         -1.6771
LJ          0.940933       -0.516163         5.99107
LJ          -4.56136        -3.73486         1.92513
LJ           3.56488        -0.98186         2.75104
LJ           1.64696        -3.44284         6.40213
LJ          -5.12209         2.60826        -5.23518
LJ          0.382268        -3.31354        0.180403
LJ          0.511292         4.92768          5.2076
LJ           1.43435         1.22875        -4.08478
LJ           2.52358        0.812773        -2.70937
LJ          -5.45427         3.37692         -4.9694
LJ          0.919075         5.94546        0.158587
LJ           2.11803         5.95792         5.54984
LJ          0.258151         6.03877         2.02687
LJ          -4.06316         3.48171        0.435933
LJ           -5.3517         3.85731        -4.70823
LJ           2.46482         6.03909         1.34529
LJ          -2.29333         6.22223        -5.53993
LJ          -3.45273          1.8441         1.88813
LJ          -5.41102         1.83654        -4.62465
LJ          -5.12014         2.92331         1.10722
LJ         -0.132671         5.20207        -3.83315
LJ           3.40072         -1.6759         3.03743
LJ          -6.17943        -3.50379      -0.0678904
LJ          -1.10633         2.37861         4.82103
LJ          -5.23628         3.45936        -2.96249
LJ           2.99565        -1.30689         6.18029
LJ          -2.48432        0.717496      -0.0982334
LJ           4.58456         3.86997       0.0194421
LJ           4.55139         2.00854         3.93944
LJ          -5.70482        -1.86718        0.777151
LJ           5.85388        -2.77503      -0.0235028
LJ          -3.02067         2.67079        -1.03439
LJ          0.364173        -4.20322        -1.14737
LJ          -2.15632        -3.50713         5.92294
LJ          0.403252         4.14405        -6.00554
LJ          -1.76433        0.644909        -5.12651
LJ           5.54452        -5.68928        -3.89177
LJ          -4.19962        0.471674         3.49411
LJ          -3.05596         4.87456         4.54415
LJ          -2.41313        -5.26236         1.17187
LJ          -1.87404       -0.838771        -3.09313
LJ          -6.28857         3.53986        -1.01878
LJ           1.00316        0.427045         1.58858
LJ           1.88128        -3.19033       -0.716219
LJ          -3.24145         3.09451        -3.28479
LJ           2.34848      -0.0159552        0.238627
LJ          -3.00347         5.10867         4.52927
LJ           5.91946         5.08787         5.46741
