108
#Comment!
LJ          -1.35903        -2.72867        -4.59308
LJ           -3.6773         2.61397       -0.138971
LJ           6.08393        0.734366       -0.507115
LJ          -3.78435         3.07442        -6.03507
LJ           4.45945        -3.78025         4.60485
LJ           5.27711         5.93796         4.67741
LJ           1.17694         5.53382        -5.37726
LJ          -2.83954        -2.41264         6.37332
LJ          -4.87581       -0.815373         2.98894
LJ           -4.7096        -3.38581        -6.09869
LJ          -5.76209         1.64468       -0.132997
LJ           -4.9911      -0.0308509         6.40141
LJ           5.36916          1.2398          4.6516
LJ          -3.70181         4.46268        -2.08149
LJ           3.69877        0.910882        -5.36014
LJ          -5.85832      -0.0262955        -4.38467
LJ          -5.00404        -2.98722         3.93753
LJ           3.79911         6.34419         4.36666
LJ          -5.37397        -4.87117         2.53931
LJ           4.68727         -1.2548        -3.91048
LJ           1.19754        -0.52115         -1.9222
LJ           -2.1265         4.49767        -2.02861
LJ           4.31664        -6.08583        -6.01608
LJ           2.83227        -1.67779         -5.5101
LJ         -0.373079        -2.66057        -3.77028
LJ           3.27116          6.2107        -3.26348
LJ           4.37431       0.0991934         3.99491
LJ           5.72546         1.11338       -0.143444
LJ          -4.65524         1.05613        -3.43455
LJ           3.46924         2.99119         3.43253
LJ          0.269248         3.97343         6.25225
LJ           5.41312        -4.47468         5.21429
LJ          -1.93694        -4.16975         3.64149
LJ           -3.2915        0.037544         6.15281
LJ           -3.2963        -5.53737        -5.70978
LJ           1.93083        0.639866         4.30375
LJ          -3.46739        -5.49861        -2.36233
LJ          -2.68698        -2.53864         2.73433
LJ           4.44306        -4.76555         -2.2127
LJ           3.26531        -6.46087        -3.23467
LJ           -2.0379        -2.99984        -2.34259
LJ          -5.55713        -3.35483        -5.50519
LJ          -0.32992         4.12442        -1.94028
LJ          -5.09858         3.61301           4.918
LJ            1.6303         0.75482        -1.68258
LJ          -4.40448        -5.54111         4.83899
LJ        -0.0679969        -4.92794        -5.08929
LJ          -3.93143          1.9287         2.41643
LJ          -4.96423        -2.53281        0.513048
LJ           6.44695         0.82452        0.797818
LJ          -5.79775         1.32935        -1.98671
LJ          -4.48117        -5.37962         4.97757
LJ            5.2129        -3.52348       -0.817812
LJ             -4.98         4.04838        -4.73567
LJ           3.19573        -4.29202       -0.445433
LJ           5.73593         5.56991         1.13188
LJ            4.0907        -6.29714        -2.26959
LJ          -4.33874         5.52591        -6.07543
LJ          -1.87711        -4.26932         1.86075
LJ           5.87013        0.315153        0.518269
LJ           1.75074         1.25063         5.46003
LJ           1.81125       -0.508198        -4.30479
LJ          -4.49877         1.67825        -5.43906
LJ          -5.41724        -5.68252         2.00724
LJ           -2.8612        -2.65372         4.84697
LJ          -1.50576         4.72185         4.69982
LJ           1.22762         4.39947          5.3125
LJ          -4.35579         -4.8329        0.737659
LJ           5.48911        -6.37628         2.81071
LJ           3.58568        -4.25632         3.52954
LJ           3.47727        -3.12909         5.73265
LJ          -2.65458         4.97768        -3.54815
LJ           5.74311         2.10087         3.32909
LJ          -4.64787        -5.27177         -2.5541
LJ           0.17233         2.62364         -5.4976
LJ        -0.0640231         3.24739        0.437436
LJ          -4.94232        -4.20405         4.25693
LJ           3.93416         5.18689        0.988136
LJ         -0.437069        -4.91604        -3.61544
LJ          -5.29688        -3.25486        -3.51257
LJ           3.02195        -2.31247         1.53358
LJ          -6.45368       -0.586788        -3.28634
LJ           3.09538         5.62702        -3.69687
LJ           -5.3204         -5.6061        -2.26068
LJ          -6.37194         5.74878        0.159192
LJ           1.48967        -1.38537        -5.49081
LJ          0.513605         1.83605         1.35376
LJ          -4.73792        -5.71915         5.08904
LJ           4.78279        -5.61931         4.75524
LJ          -4.26352        -1.00707         5.02574
LJ           6.03223         6.36514        -4.53302
LJ           4.61816        -5.37541         1.98074
LJ          0.225251        -1.24871        -5.79872
LJ         -0.524033         3.70679         4.20755
LJ           5.97365         2.71099         3.57558
LJ          0.873826         5.82973         6.12746
LJ           4.73771        -2.44287          1.6447
LJ           5.50618        -3.21761        -4.45443
LJ          -3.03558         3.37346        -5.09334
LJ           5.78949      0.00966768       -0.263127
LJ           5.75858         3.27193        -3.97956
LJ         0.0280263         6.19677        -5.41237
LJ          -6.31855        -6.12538         5.73039
LJ          -3.55367         3.03283         2.02102
LJ           3.50586        -3.66951         2.61343
LJ           3.22829        -2.06398        0.536871
LJ           2.72558         1.83624         4.16326
LJ          -1.71658         5.75484         3.34052
