108
#Comment!
LJ          0.549193         0.53872        -2.72745
LJ           6.00986        -0.23259         6.37725
LJ           5.48532       0.0880278        0.202275
LJ           5.09837         4.19408        -2.59849
LJ           5.86207         3.65313        -3.03763
LJ           5.62493         1.87487         1.22824
LJ          -1.73311       -0.974365          1.7216
LJ           2.86502       -0.949726        -3.83868
LJ          -4.06801         5.31658         3.65379
LJ          -3.19695        -3.74336        -4.90798
LJ          0.295841         2.50263        -5.62671
LJ          -4.19442         5.22251       -0.657645
LJ           2.96319         -3.8763      -0.0476403
LJ          -1.02515        -5.23511        -4.04122
LJ         -0.641785         4.39657        -4.19896
LJ          -2.67314       -0.127799         3.98758
LJ          -4.75242        -1.18994        -5.05829
LJ        -0.0409918        -3.22578         6.08609
LJ          -2.62431        -1.30212        -3.56461
LJ          -6.08295        -2.49661         3.45371
LJ          -1.61785        -3.13536        -4.35585
LJ           2.96972        -6.28212         2.89175
LJ           5.42974         2.11344         3.34838
LJ          -1.00611        -6.35764         2.48204
LJ          -5.67894         1.05756         2.06054
LJ          -5.57454        -4.00761         2.62129
LJ           6.36279        -3.79403         2.26102
LJ          -4.07662         1.35634         5.54072
LJ          0.773179         2.24509         2.28172
LJ          0.145799        -1.96051         1.48549
LJ            1.2139          4.9208        -4.33424
LJ           3.03119        -5.01922         3.05662
LJ            5.1619          4.0083         4.89685
LJ           1.12585        -5.03195        -3.81066
LJ           5.43159         2.30617         2.15035
LJ           2.07156       -0.914432      -0.0814213
LJ          -2.45238        -5.38817         6.43753
LJ           -0.6745       -0.778981         1.88875
LJ          -2.13035       -0.513852         2.77981
LJ          -6.20874         3.48426        -1.12737
LJ           4.62433        -1.23186        -1.69743
LJ           4.42423        -3.40783         5.40691
LJ          -2.88018        0.911281        -1.34191
LJ          -2.11199        -1.98229         2.77547
LJ          0.542103       -0.974658         3.16853
LJ          -5.19893         1.13998         3.05673
LJ            6.3048        -2.12112        -2.66748
LJ          -3.59393        -2.36443        -4.82466
LJ           3.53093        -3.78878        -6.32473
LJ           4.37895      -0.0962355         3.50741
LJ          -3.21146        -2.01516          2.4465
LJ          -1.34742         3.29255        -4.24129
LJ          -6.01185        -3.75024        0.752234
LJ           3.99597         3.03719        0.416898
LJ          0.247153         4.84281        -2.19631
LJ          -1.93096        -4.37675         6.27359
LJ          -5.09517         2.20842        -2.18146
LJ          -5.02056         2.90398        -3.69795
LJ          -6.17026         6.09014         3.68228
LJ           1.81601        -2.48101      -0.0728938
LJ          -4.04922        -2.35914         5.60858
LJ          -2.22792          5.0814          4.4734
LJ           5.68656         2.18263        -3.77433
LJ          -6.08731         2.71008        0.967566
LJ          -5.79486         4.77438       -0.305191
LJ           3.11383        -6.03276        -4.83118
LJ          -5.54994         3.67518        0.592679
LJ           2.51111         2.59182         4.73319
LJ           3.74088        -1.68832        -2.16061
LJ           4.26695         3.11827         2.07572
LJ         -0.745625        0.479653         1.52597
LJ          0.199454       -0.537031        0.842294
LJ          -2.34232        -3.40076        -2.10115
LJ           -2.8099        -3.14578         1.98928
LJ          -6.20807         5.97995         4.98158
LJ           4.00125        0.650935         1.05591
LJ          0.894957        -4.02136        0.244793
LJ          -1.22124        -2.52513         2.93284
LJ           4.52551         5.93508        -5.01939
LJ          -2.90041        -2.66207         3.07805
LJ          0.467067       -0.921275         4.19884
LJ           3.67318        -2.95467        -1.82121
LJ           2.56832        0.118155       -0.967534
LJ          -1.34644        -1.20999         2.74074
LJ           4.64854        -5.83368        -4.46695
LJ          -5.14624        0.534961         1.02254
LJ         -0.433511         1.09061         2.69712
LJ          -1.90778        -2.99583        -3.16427
LJ           4.05977        -2.78046        -2.83243
LJ          0.778827        -6.16004         4.21764
LJ           5.94491         5.48464         4.61312
LJ           5.97472       -0.121977        -1.56468
LJ           3.39768         4.18222        -3.10205
LJ           2.56425         2.35258       -0.514551
LJ           6.42075         4.24461        -1.91833
LJ           4.27077        -2.24044         -1.1166
LJ          -5.09118       -0.108538         2.31349
LJ          -3.23415         5.61245         -4.0628
LJ          -1.14051        -3.29522        -1.44524
LJ          -4.92811         3.34068        -1.63154
LJ          0.397716         1.35555         1.76531
LJ           2.45233        -1.05525        -1.06459
LJ           2.57079       0.0533921        -6.04569
LJ         -0.477316         1.36456         1.09279
LJ           5.03917          1.3198         2.62989
LJ           3.29609         2.19384         1.06848
LJ          -5.21471        -1.08665        -2.71956
LJ           5.47179         1.66813         4.36558
