108
#Comment!
LJ          -5.81982        -1.28259       0.0977041
LJ          -1.20995         5.03742        -3.85355
LJ          -3.51161         3.34777        0.509493
LJ          -2.06922        -3.50905         3.51136
LJ           2.62396        -5.92951         1.81202
LJ           3.26028         -2.8922        -3.11874
LJ           3.14442        0.512074         1.92938
LJ          -4.17894         6.28262          -3.509
LJ           1.44949         0.58998         -5.6409
LJ           -5.3384         6.16462         4.45504
LJ          -3.10164         4.99889        -5.21933
LJ           2.45954        -6.43545       -0.145199
LJ           -3.5541         5.50256       -0.764083
LJ          -2.11309         0.24568         2.38515
LJ           4.39282         4.22934         4.59606
LJ         -0.159633         4.54588         4.33497
LJ          -4.09727          6.4539         5.08276
LJ          -3.33164         -3.4105        0.477173
LJ            5.8802       -0.335375         3.51314
LJ            3.8296        -1.90622        -2.88767
LJ           4.84175          3.3246         4.37825
LJ          -5.96279         5.89834        -3.36749
LJ           5.70234         5.69935        0.844271
LJ           1.62823         1.11755        -5.58503
LJ          0.859079        -5.89568       -0.137301
LJ          -6.45914        0.664443         2.25893
LJ          -4.05711         3.42889        -3.14245
LJ           4.35854         4.78671         2.03071
LJ           5.95159        -2.21407        -3.48224
LJ          -2.78086        -4.46276         4.71183
LJ          -1.94426        -4.26713         4.70454
LJ           3.28755        -0.89399         -1.1236
LJ          0.758649         5.80443         3.24586
LJ          -6.19253         -4.8194        -0.23506
LJ          -4.29799        -5.65708          1.3473
LJ           1.87926        -2.11045         4.96555
LJ          -4.04301         2.11872        -3.75382
LJ          -3.82398        0.836902         3.50432
LJ        -0.0852551         1.96994        -5.95682
LJ           -6.0254        0.433287        -1.46368
LJ          -3.27679        0.633033        -4.77617
LJ           2.90827        -5.52864         -5.6981
LJ          -6.35514         2.93975         2.94325
LJ          -4.81672          4.2601         4.20502
LJ          -4.95041         2.61856         3.92386
LJ          -6.28063         3.65453        -1.44407
LJ         -0.645254         3.01334         2.04624
LJ          -5.47149        -2.16733         4.72724
LJ        -0.0782782         3.60041          4.6734
LJ           4.38163        -4.75203        -1.94026
LJ          -4.59289         1.01254       -0.867548
LJ           0.29504         -5.5904         6.04276
LJ          -5.38622       0.0577234       -0.989786
LJ           3.95183         4.96986      -0.0932142
LJ          -1.86196        -1.75993        -3.93349
LJ           5.13095        -2.18484         3.90884
LJ           3.68021         5.90979        0.663843
LJ           4.44198        -5.45384        -6.12151
LJ          -1.11549         5.18721       -0.381943
LJ          0.824759        -6.23537        -4.16785
LJ           5.50314        -4.73829         5.16874
LJ           4.18413        0.628733         -5.3429
LJ           3.97965       -0.471541       -0.476248
LJ           3.12936         5.54314         -5.1133
LJ            3.8929         4.94637        -6.16754
LJ          -1.70084         1.85582        -4.40686
LJ          -1.78481         3.74334         6.22245
LJ           5.64069         6.34653       -0.818341
LJ          -1.48992         4.65419        0.102389
LJ          -2.55502         5.89388       0.0274113
LJ           6.12811         1.90004         1.17122
LJ          -5.32097        -4.92293        -1.62486
LJ           5.11261         5.37229        -6.34463
LJ           2.62095         1.21555        -6.30837
LJ           5.51069          5.3257        -5.08899
LJ           3.78892         4.95423        -2.88972
LJ          -5.70794        -1.73798         -3.9062
LJ           -2.4195         -6.2315          2.7632
LJ           2.47074        -2.05413       -0.885821
LJ         -0.399335         0.35899         6.37694
LJ          0.816003        -4.36905        -4.79436
LJ          0.333985         0.10094         5.62797
LJ            1.5079         4.46286        -2.57178
LJ            3.2124         -3.6128        -1.13718
LJ           3.07461        -5.30772        -2.85746
LJ          -1.84041         3.46315         5.77861
LJ           5.92637         2.15803        -2.04886
LJ         -0.586987         5.59419          5.6135
LJ          -2.64731        -4.00519         -4.9105
LJ          -5.56902        -2.96892        -5.99633
LJ          -2.44228        -3.09511         2.81873
LJ           4.23247       -0.789205        -1.31562
LJ           -4.0361         2.36825        -4.67508
LJ           4.59014         2.65273         2.80265
LJ           3.38934         -3.0424       -0.327933
LJ           4.31186        -5.04308        -3.24228
LJ           4.82747       -0.423489          4.9187
LJ         -0.691393        -3.74469        0.333358
LJ          -2.64387       -0.327024         3.31898
LJ          -3.22992        -1.98163         -1.1771
LJ          -3.09477         -1.8016        -5.77939
LJ           1.97232         2.34988       -0.812294
LJ          -5.89634         1.83296        0.701543
LJ          -6.35747        -1.46134        -5.34005
LJ           3.09577         -3.2667         4.25655
LJ          -6.14835         1.64757       -0.264656
LJ           2.17931         3.37356        -4.69752
LJ           4.03373         5.33067         3.02078
