108
#Comment!
LJ           -2.4138         1.58675        -1.23367
LJ           5.53231        -5.67029          2.6976
LJ          -4.47136        -3.96706         5.02078
LJ           2.78489         1.82669         3.75374
LJ            4.0726         3.93885         4.03714
LJ          -2.16208        -1.05248        -1.35924
LJ           -1.6407          6.2236         4.18505
LJ          0.891022         1.72283        -5.06299
LJ           1.14946        -3.76471         1.03809
LJ          -4.66832        -5.36487         2.56978
LJ          -1.68469         4.60265        -2.80799
LJ           2.03087         3.57685           5.865
LJ           -1.8577         2.60141         -5.9684
LJ          -3.28496         3.48951        -3.93296
LJ          0.201824         2.16112         3.26206
LJ          -3.89537          1.4564        0.145744
LJ          -2.01089        -4.29002        -4.35384
LJ           0.24305        -5.05697        -5.35735
LJ            5.3966        0.385378         3.56873
LJ          0.832908         2.36111       -0.866604
LJ           2.70277         2.49466         4.29489
LJ           4.21701        -6.24482         5.47961
LJ          -3.18333        -3.43732         1.87158
LJ          -3.16383        -5.09005        -3.73184
LJ         -0.550053         5.36512         5.72404
LJ           4.19998        -2.13828         6.27548
LJ          -5.35653         4.14196           2.236
LJ         -0.847196         6.22739         4.01376
LJ           5.48632        -1.70069        -4.02198
LJ            4.9043        -1.35247        -1.10442
LJ         -0.570749         6.36425        -2.47929
LJ           1.70327         4.93512        -4.44706
LJ         -0.791868         6.32859         4.61522
LJ          -1.99817        -4.87417        -5.56991
LJ           -4.3126        -2.79529         6.38651
LJ           3.18711         4.00592       0.0715453
LJ          0.982296         -2.8146       -0.854786
LJ         -0.691441         2.55905       -0.437107
LJ          -1.75052        -3.86295        -2.86164
LJ           4.85004         -3.8386        -2.63562
LJ           4.15031        -6.03394         1.65206
LJ          -3.85202         4.99883         6.00299
LJ           3.96977         3.71461         5.88825
LJ           4.10789         4.01753        -5.04592
LJ          -4.61842        -5.66983         6.24931
LJ           1.11823        -1.45684        -2.79683
LJ            3.2281         4.97092        -2.16819
LJ           4.22781        0.474246        -2.70844
LJ           2.30958        -3.22031         1.59591
LJ          -0.45775        -1.32174         -1.3208
LJ           4.96689         6.25896         5.49017
LJ           2.06996        -4.13368         3.87795
LJ           5.70847         6.15222          5.6714
LJ           4.90903         2.46171        -5.46093
LJ          -1.18057        0.869892         1.84019
LJ          -1.59357         5.89972        -3.16014
LJ           1.85653        -1.90841        -4.43424
LJ          -3.92775       -0.692331         2.73448
LJ          -6.06173       -0.207912       -0.115314
LJ           1.98671        -4.07328         6.31831
LJ          -5.40078         3.62336        0.811433
LJ          -1.35247         5.49284         3.60293
LJ          -4.47786         -4.3969         5.92435
LJ          -2.49222        -1.27587         2.12082
LJ          -4.08376         1.77125        -2.10287
LJ          -4.04706        -5.86365         4.44039
LJ          0.108267        -3.12144        -2.28054
LJ           6.15183        -6.13289         -1.8385
LJ            5.8269       0.0860028        -4.04168
LJ           3.65188        -3.13736        -3.37929
LJ           2.08331        -5.50619        -4.32487
LJ             -2.09        -3.29913        -1.03871
LJ          0.496472         2.48742        -4.44766
LJ           -4.0612         2.55907        -5.53681
LJ          -5.58704        -5.87699        -6.05192
LJ           2.18834         5.72185        -1.75728
LJ          -2.99349        -0.93078        -6.04272
LJ           2.62795        -2.94043         0.34145
LJ          -1.47059        -5.29318        0.344789
LJ           3.02325         4.16163         1.48378
LJ          -5.75669        -5.68041         4.19305
LJ          -6.33564        -5.81197        0.884803
LJ           1.45511        0.759745        -1.69987
LJ           2.20588        -5.31355        -2.01411
LJ            2.2592         6.29051        -4.92912
LJ           4.58793        -1.80736        -1.44057
LJ          -2.62952         5.17777        -4.93891
LJ           3.83386         4.98585         5.56348
LJ          0.351451        -3.22926       -0.798671
LJ          -5.01578         4.75952        0.182622
LJ         -0.343902        -1.75613         4.74521
LJ         0.0392681         5.80037         1.56107
LJ           5.60764         5.68162        0.147564
LJ           4.24134         1.08543         5.61187
LJ           3.59284        -5.33475         -3.6608
LJ           4.89799         5.25124        -2.91029
LJ           3.34323         3.12309         5.66871
LJ           4.01013        -2.59019        -6.30397
LJ           5.80867        -4.32751        0.332162
LJ          -4.98752         3.03134        -5.24265
LJ           2.52574        -0.94529         5.43154
LJ          -5.33597         3.35715        -1.58834
LJ           4.97875        -4.62588         2.46226
LJ          -4.17242       -0.179447         3.94406
LJ           2.62448        -4.48701         2.70491
LJ            4.8429       -0.962507         5.85191
LJ          0.419934        0.567675         5.51512
LJ          -0.54446        -6.23152        0.680328
