108
#Comment!
LJ           5.87263         6.35609       -0.798386
LJ            1.7807         6.45978        -5.48046
LJ          -4.23111         1.25586        -5.66075
LJ          -2.60465        -1.36316        0.634437
LJ           3.62053        -3.05444       -0.194614
LJ          -1.44886        -5.61727        0.661094
LJ           4.33284           4.232        -2.18471
LJ          -4.15103        -4.13701         3.93491
LJ          0.443413         6.29326         2.67549
LJ           -3.9503        -5.96362        -6.25448
LJ          -5.44411         -2.4999        -1.60463
LJ          -1.65631         2.51837          4.1363
LJ           2.39712       -0.928796        -1.32329
LJ           5.86324         3.93035        0.469609
LJ          -5.34377        -3.69135         5.07214
LJ         -0.763819         5.04664         1.76615
LJ           4.04874        -2.30208         1.65378
LJ           -6.0372        0.272493         2.78691
LJ           3.75109        -3.05182         1.22611
LJ          -4.15004        0.790207         3.21667
LJ          0.807107         -0.7785        -5.38539
LJ          -2.14421        -2.71612         -1.0381
LJ          -3.24205        0.352412        -5.22857
LJ         -0.809943         2.73339         1.79325
LJ           1.16781        -2.49234        -6.06106
LJ          -5.71861          3.2994        -2.52554
LJ         -0.698959        -2.62992         5.48255
LJ           1.23018         6.39769         -3.0425
LJ           6.42011         4.22026        -4.83099
LJ          0.220627        -3.50116         0.98185
LJ           4.41175         4.39275         4.35372
LJ           1.41438         4.04695        -4.67812
LJ          -3.39416       -0.643513       -0.273618
LJ           -1.6647         -3.9259         4.61388
LJ           3.00752         4.27911         2.12793
LJ          -1.58756      -0.0535498        -5.55173
LJ           4.48614          4.7616         2.10088
LJ           2.05461       -0.710259         6.33561
LJ           3.92897        -2.98187         4.06614
LJ          -5.89361        -5.51446        -2.38233
LJ         -0.255974        -4.78011        -3.37985
LJ          -3.57696        -4.18721        0.272912
LJ          -4.51748        -4.66614        -4.00139
LJ         -0.728519       -0.358638        -3.28895
LJ          -1.92773        -3.12115         1.04345
LJ          -6.08492         5.73804         -1.5076
LJ           4.87317        -1.61082        -4.41833
LJ          -5.68822         6.20696       -0.520228
LJ           4.28266         0.24155         5.80283
LJ          -1.10204        -5.23472         5.92201
LJ           1.99003         5.92989        -5.60262
LJ          -3.01712         5.51405         3.79677
LJ          0.373328        -3.94647         3.86702
LJ           5.05546         6.29972       -0.218458
LJ          -2.43068         3.73447         6.03727
LJ           4.13867        -2.75553         4.64199
LJ          -5.22544      -0.0740141       0.0212588
LJ          -5.64696        -1.61198         3.62261
LJ           6.20003        -1.56073         3.63478
LJ          -2.21863        0.504903         5.10093
LJ          -4.06345        -3.58735         1.77992
LJ            1.0512         3.09221         5.40134
LJ          -2.33199         4.77151         -3.5464
LJ          0.811019       -0.782586         4.23943
LJ           5.40272         4.00215        0.780475
LJ           -1.3337        -6.06304         6.04685
LJ          -1.08797         3.03625         1.80969
LJ           5.11078         5.32538        -4.96586
LJ          -3.90613         3.22941        -4.30655
LJ          -6.26931        -3.87484         -1.3519
LJ           0.40507         1.49077        -2.48668
LJ          -2.85691         2.13131         3.22181
LJ         -0.392065        -6.05168        -1.83077
LJ           5.98385         2.84145         3.17523
LJ          -2.17703         2.60516         2.68063
LJ           2.99465        -2.68168        -1.75291
LJ          -4.92688         1.34399        0.652261
LJ           2.07006         -4.1183        0.120487
LJ           4.42383        -4.30187         2.94976
LJ          -2.52066         4.62026        -4.76403
LJ          -5.70619        -3.32011       -0.647862
LJ          -3.18547        -2.71243       -0.270128
LJ          -3.89989        -5.35881         2.33662
LJ          -3.40576       -0.513406         2.02038
LJ          0.619701         4.31019        -3.36182
LJ           2.69031        -3.07652         1.00005
LJ           2.25763         2.48414         1.91126
LJ         -0.129763        -4.14783        -4.59667
LJ         -0.650511        -2.58083        -6.33845
LJ           2.17128         2.67784        -6.17494
LJ           1.26371       -0.082664         4.22911
LJ          -5.08889         3.13907         6.07937
LJ          0.710379        -3.75346        -6.24111
LJ         -0.186415        -4.66981        -2.00426
LJ           3.12225         1.59563         1.15287
LJ          -5.34403         2.85521         5.37905
LJ          -5.70738         -5.4707         2.23119
LJ          -5.87633        -4.73483         1.42127
LJ          -1.44361        -5.06558         3.42985
LJ           -5.5179        -5.31196        -6.12048
LJ           3.42766        -2.25627        0.265077
LJ        -0.0400379        -1.05508        -4.62815
LJ           3.16542       -0.157954          1.6985
LJ         -0.275124        0.652853         -4.6419
LJ           1.84573         4.30587       -0.517678
LJ          -3.15814        -4.08397         -5.3816
LJ           4.35791         1.50932        -3.07477
LJ           -4.4615         3.12973         3.43519
