108
#Comment!
LJ           3.11315        0.302829        0.678848
LJ           4.38218        -3.00756          0.1333
LJ           -2.6083         5.02807        0.458023
LJ          -1.33611       -0.751383          -5.651
LJ            1.1251        -2.69992        -5.29294
LJ          -2.14785         2.66759        -2.24528
LJ           1.28239          4.5184         6.09689
LJ          0.810465         2.97759       -0.308858
LJ           1.98995        -5.30614        -3.74693
LJ           4.75185         6.22154          -6.094
LJ          -1.33741        -3.83252        -2.26832
LJ         -0.516532        -6.33318         5.06127
LJ          -2.37843         4.05629        -4.69838
LJ         -0.290906         -4.4389        -4.87644
LJ           5.89526        0.507828          -6.184
LJ           5.00431        0.769003         2.55112
LJ           2.22814        -2.37795        -2.17635
LJ          0.516638         1.37795        0.362577
LJ          -4.46477        -3.73646        -3.93992
LJ           5.07431         3.70659          2.9287
LJ          -4.74983        -3.04141         3.88275
LJ          -3.92896        0.599539        -1.45776
LJ            4.0515         3.84988         5.00801
LJ          -5.11263         2.87251        -5.09714
LJ           5.87297         5.21298        -5.01305
LJ           3.11879         3.41094        -3.59789
LJ         0.0170436        -1.91862        -5.31626
LJ          0.607605        -2.30337         1.13255
LJ           -2.1104        0.268039        -1.32612
LJ           3.44263         1.87221        -0.94909
LJ          -2.18287        -5.68898         2.90816
LJ          -4.64149         2.43439         4.64756
LJ          -4.89993         6.20013        -5.52324
LJ           4.56105         1.09107        -2.95452
LJ          -5.86366        -1.67301        -3.96058
LJ           4.10887         2.33823        -3.87322
LJ          -4.57981         5.05071         1.85365
LJ          0.536181       -0.332885        -1.93269
LJ           5.38979        -6.45218         2.69462
LJ           5.98392         3.85364      -0.0908957
LJ          -5.96327        -2.29666        -5.95225
LJ          -2.55218       0.0999328         2.86242
LJ           2.59597         3.48384        -3.26562
LJ          -5.24189         3.34689        -1.12312
LJ          -4.71559        -3.92693         3.40878
LJ            5.9657        -3.42964         2.66158
LJ          -3.00897        -4.11726         5.22621
LJ          -6.41686        -2.58527        -3.43956
LJ         -0.314516         3.97435         5.12404
LJ           5.36344        0.215048         4.31104
LJ            6.1519         2.69023        -2.37769
LJ           2.76771        -3.86518         0.64496
LJ           3.69767        -5.56326        -4.30816
LJ           6.00133         5.68422        -2.60985
LJ           1.72571        -6.27081         2.52849
LJ           3.41681         5.32172         3.00271
LJ           2.19768         4.42544        -2.56293
LJ           3.49651        -4.39242       -0.567456
LJ           2.16606         4.80378      -0.0146369
LJ           2.28621        -5.63733        -4.03104
LJ         -0.514053        -1.39635        -3.96489
LJ          -4.38051        -5.75301         5.97829
LJ         -0.125065         0.25612         0.23379
LJ          -6.11815         2.35871        -4.64669
LJ           1.18476        -3.28982        -5.74369
LJ          -1.46919         6.26906         2.30602
LJ           5.91658        -5.06613        -2.33878
LJ           1.02749         1.82542         5.76638
LJ           0.92292         1.98776         4.72238
LJ          -1.76732        0.294641         2.55471
LJ          -1.42128        -3.46676         6.45562
LJ           2.69031         3.08856         5.07866
LJ          -1.64211         4.85215      -0.0612874
LJ         -0.845841         -5.4925        -3.24606
LJ           5.96337         1.28459         -1.5383
LJ           6.19797        -4.58273        0.406973
LJ           4.65932        -5.34698         5.11656
LJ          -1.56177        -2.30281           4.038
LJ            3.0338         1.63202         2.89792
LJ           4.72498         2.12142        -3.19757
LJ           5.44664        -5.71741         3.97367
LJ         -0.285213          4.8375         1.91986
LJ          -1.31674       -0.346665         5.52272
LJ          -3.85382        -3.12255         2.92065
LJ           2.69802        0.539983         5.06091
LJ           5.22982        -2.49296        0.361562
LJ           5.49543        -1.97703          3.7925
LJ           5.12011        -4.89248        -5.26576
LJ          -2.87961        -5.46176         1.18904
LJ           4.87487         2.27676        -3.99376
LJ          0.438377         3.69868         1.07289
LJ          -2.08648        -1.39051        -1.25982
LJ          -5.31679        0.109362         6.33245
LJ           -2.7416        -5.33747        -4.93258
LJ         -0.289652         4.30497        -6.27279
LJ          -3.63023        -1.80795         1.45182
LJ          -1.34785        -5.91499         5.26387
LJ          -4.07393        -3.51466         3.99992
LJ          -3.53102         3.86335        -3.75407
LJ          0.914355       -0.319149          3.8343
LJ          -6.30048       -0.193469         2.19636
LJ           4.73965        -5.88458        -3.61254
LJ           2.06557        -3.86161        -0.49166
LJ        -0.0238038        -4.63999         4.28036
LJ          0.685683         4.54427         5.79478
LJ          -6.31279        -3.34434        -1.73888
LJ           1.36496         2.09962        -2.88613
LJ          -3.22585         -1.1135         4.27271
