108
#Comment!
LJ           2.61377         -4.9764        -1.71107
LJ          -4.66091        -3.80801       -0.629708
LJ          -3.85629         3.88512        -6.29922
LJ          -2.20084       0.0390689        -5.63745
LJ          -2.13724        -2.29489        0.401076
LJ           -1.1398        -5.83118        -4.48855
LJ         -0.236073         6.19255       -0.880622
LJ          -6.12259        -3.07913        -2.36479
LJ           1.92608        -3.85041         1.30742
LJ           0.63795        -3.64826         3.07991
LJ           3.04757         3.39019         1.68808
LJ          -3.16811        -1.56066         5.63541
LJ           2.23005        -3.15495         3.10334
LJ           3.80531        -1.13353        -5.77747
LJ           3.17946          5.8674        -4.86077
LJ           1.79479        -4.71559        -3.33811
LJ          -4.72615         1.32208         5.56793
LJ          0.394042         1.54144         1.56668
LJ           6.23265         4.36644        -3.69593
LJ           2.44427         2.21851       -0.169573
LJ          -3.44503         2.36525         5.35022
LJ         -0.240428          3.4806         1.32277
LJ          -1.01795          3.7721          5.1722
LJ           2.14152         5.38174         4.74667
LJ           4.12353         4.23839         -3.6635
LJ           4.79774        -4.46959         5.34231
LJ          -5.71109        -3.91194        -3.55293
LJ           6.16352        -5.26428         2.97127
LJ         -0.216155         6.36186       -0.756351
LJ           4.42028         6.00924         -6.2776
LJ          0.569027         2.75618        -1.82359
LJ           2.88231         3.06161         6.42067
LJ          0.856329        -6.16954         2.92531
LJ          -2.45478         2.00269        0.981321
LJ          -2.88913       -0.365903        0.346353
LJ           4.24731       -0.319668       -0.824065
LJ          -4.50587          3.6596         3.78079
LJ           5.47809        -1.35584         3.15445
LJ          -4.31956          5.6504         5.50474
LJ          -3.84982         2.01059         -1.8394
LJ           5.52466        -4.97132        -2.35193
LJ           -2.2227         1.80538        -1.99271
LJ           3.97461        -2.37992        -6.04247
LJ         -0.484248         3.11405        -3.64703
LJ           1.07636         4.75916        0.151467
LJ          -6.31447        0.726974        -6.23098
LJ          -1.18976        0.223026       -0.538127
LJ           4.98833         6.26313        -1.39329
LJ           4.68715         1.91548         1.14968
LJ            5.8179        -3.43007       -0.925981
LJ           5.34947         6.21432         5.09214
LJ          -3.31502         2.51149         2.82463
LJ          -1.86683         6.41656         3.04611
LJ           2.63085        -4.30624         3.41992
LJ          -2.26886       -0.616529        -1.42446
LJ          -3.39809        -5.73023        -3.18144
LJ          0.957741         3.49582         6.23503
LJ          -5.15326        -5.04829        -1.50342
LJ           1.98323        -3.43103         1.82395
LJ         -0.633772         2.55496       -0.246489
LJ           2.53137         1.92544         1.24596
LJ           -5.2486          -3.081        -5.33484
LJ           6.19867         1.44801         5.10118
LJ          -2.03542        -2.49809        -2.99929
LJ          -3.69832        -1.25699      -0.0956365
LJ          -5.01416        0.432267        -4.35396
LJ          -0.29479        -2.57127        -2.55555
LJ           5.03099         6.35862         4.66251
LJ         -0.703371         -6.0686        -4.88783
LJ          -4.95554         1.51633         0.58422
LJ          -1.22989        -2.87385         2.12915
LJ          -4.86102        -4.49581         2.23357
LJ            6.3536         3.00183        -3.97072
LJ          -4.78912        -1.91781         5.17416
LJ          -2.54277        -2.44127        0.348968
LJ           2.35476        -1.53974         -2.4245
LJ          -2.84576       -0.234669     -0.00304693
LJ          -4.97837         2.86316        -5.92829
LJ           6.05469        -3.23999        0.206495
LJ          -4.93019         3.07783        0.236181
LJ          -1.72709        -4.53788         2.38858
LJ           3.76119        -4.95704        -1.49036
LJ          -3.22034         6.40376         4.01034
LJ          0.202653         5.49141         2.54495
LJ          -1.00895        -2.52728         5.65807
LJ          -5.54139         1.02211        -4.41749
LJ           6.30565        -4.04994         -1.2737
LJ          -1.56064        -5.15044        -0.16474
LJ           4.94088         3.98477        -3.71599
LJ           5.56528        -5.37608        -2.93186
LJ           5.32269        -2.93728         2.65593
LJ           5.83648         3.83767         4.85217
LJ          -1.19369         1.69442        -1.93909
LJ          -6.30614         3.75441        -1.51741
LJ         -0.924186       -0.835463        -3.80725
LJ          -3.06588        -3.74182        -4.65717
LJ           -1.1003       -0.417346         3.47151
LJ           2.26405        -4.67723         6.06293
LJ          -4.98499       -0.101996         2.03368
LJ          0.860866        -6.09632        -2.72196
LJ          -2.03431        -4.48609         4.55167
LJ        -0.0663808         3.64161         3.29986
LJ          -3.59671         0.48781        -2.17239
LJ          -5.90377        -5.54697         6.43216
LJ           1.53193        -4.36971        -1.98889
LJ           1.80481         1.08036        -1.17284
LJ           0.88606         -6.2457       -0.193265
LJ           3.99378         3.46224         2.04316
