108
#Comment!
LJ           3.90219         2.00956        -5.51914
LJ          -5.81377          5.5673         1.28028
LJ           5.85555        -5.36677       -0.194536
LJ           1.94904         3.72217       -0.824961
LJ          -1.39919        -4.67142        -6.35769
LJ          -5.42994         6.12731         -2.4247
LJ          -5.68523       -0.520499        -5.53833
LJ          -3.36957          5.9733         3.88688
LJ          -1.51616        -3.91553          6.3556
LJ          -3.33579        -5.22962        -2.66389
LJ          -4.57542      -0.0346865         4.77868
LJ        -0.0676412         3.08975        0.290987
LJ          -1.73274        -4.96484         2.46915
LJ          -2.37552       -0.695101         1.48178
LJ           3.37425        0.547745        -4.17062
LJ          -5.46444        -5.72247         3.44737
LJ           2.62708          3.8496         3.91555
LJ          -2.51393        0.678005         5.45859
LJ           1.70519         1.95611        -3.50485
LJ          -5.06967        -5.84694         5.22509
LJ          -3.91607         0.19215      -0.0506403
LJ           3.82682        -4.24286         1.41724
LJ           5.36359        -6.09264        -4.56147
LJ          -4.90423         -5.7712         3.87571
LJ          0.472879        -2.74316        -3.32329
LJ          -5.73967        0.980187         3.00402
LJ          -5.41892        -6.23202        -5.64806
LJ           5.77555         5.89276        -2.13295
LJ          0.295744        -6.03407       -0.269654
LJ           2.20279         2.26433         2.67464
LJ           6.39346         2.69952         5.04598
LJ        -0.0794715        0.569348        -2.12801
LJ           5.53782         4.47716         5.60817
LJ           4.42292           6.089         1.98148
LJ           3.66308         6.15073        -5.90422
LJ           1.65279        -1.92671          5.9242
LJ           3.85221        -5.72856         3.92532
LJ          -4.64449          5.8867        -4.20829
LJ           4.19843        -2.52928         4.68486
LJ          -2.06698         6.11094         1.49685
LJ           1.91944        -4.04782        -3.82344
LJ          -3.23873        -5.52803         5.32019
LJ         0.0240344         6.34093         4.73586
LJ          0.132446          5.3881          2.3976
LJ          0.117961         6.43696       -0.130412
LJ          -5.26299         3.09718         5.89811
LJ          0.489878        -3.48904        -2.78281
LJ          -2.95765         2.25226        -5.13363
LJ           1.59079        -5.73664         2.45197
LJ          -4.61716        0.324978         -4.4917
LJ           3.95212        -3.05515         5.65243
LJ           3.84212        -5.04409         1.91115
LJ           3.90341         -3.8959         1.20371
LJ          -2.69971        -1.62568         4.63617
LJ          0.542969        -4.44839          4.9436
LJ          -4.32044        -4.84857        -5.92978
LJ        -0.0274028        -1.91177        -5.26843
LJ           3.54563        -1.98247         1.37438
LJ          -5.55773       -0.731433         4.61347
LJ         -0.390239        -4.41446         2.57178
LJ          -1.38746          3.0354       -0.652917
LJ          -3.41081         1.52754         4.02503
LJ          -1.37761        -5.36616      -0.0625408
LJ          -4.40929        0.731499        -4.18851
LJ          -6.42197         2.62126         5.31176
LJ            2.3224         1.75289         3.82237
LJ           1.67714         3.74184        -3.71897
LJ          -1.14503        -2.96272         5.37692
LJ           0.14421         4.36884        -6.36991
LJ          -2.23659       -0.171714         1.78712
LJ          -1.91519         6.19726         5.48643
LJ           -2.7208        -3.40903         6.25913
LJ           3.31351         4.31188        0.951801
LJ          -5.89676         3.59509        0.591881
LJ          -5.48645       -0.515764         3.65832
LJ           2.83386        -1.33128       -0.107321
LJ          -2.02511         4.25818         3.31364
LJ           4.06834        0.488335        0.973382
LJ          0.946723        -2.47951         1.62113
LJ          -2.38806        -3.31639       0.0698058
LJ           2.30534         1.18903        -4.72392
LJ           5.51935        -6.04036        -2.49117
LJ          -2.70201         2.94934         3.34249
LJ         -0.361867        -6.23062         2.56416
LJ          -3.94703         3.53471         3.28912
LJ           4.58458         3.37201         2.59419
LJ          -3.48246         5.70399         2.07957
LJ           6.36289         4.42186         0.94582
LJ          -6.04997         1.94512        -3.22177
LJ           1.62183        -4.07152         2.82648
LJ           2.43069         1.21326         2.67639
LJ          -1.94927         3.07951       -0.294108
LJ          -3.86356      -0.0215714         -3.4517
LJ           1.75047         3.08693        -6.20103
LJ           3.13681         1.40859          -6.065
LJ          0.830118        -4.80331        -6.28016
LJ          -5.65483        -3.39483         2.30647
LJ          -1.98651         4.43054       -0.231319
LJ            4.7136         3.85719            5.75
LJ           3.02182          4.0921      -0.0186927
LJ          -6.29541        -1.58684        -5.70991
LJ          -4.32998        -5.74208         6.34854
LJ           3.86632         1.56975          6.0586
LJ           1.37014         5.34995        -4.30068
LJ           4.11207        -2.74782         5.19206
LJ           4.57893         5.33844         2.05893
LJ          0.374947        -2.72282        -2.78734
LJ           -1.6488       -0.375964        -4.27747
