108
#Comment!
LJ           1.68064        -2.53743        -3.36547
LJ           3.76308        0.944481         4.95285
LJ           5.99206         1.15241          4.8867
LJ          -4.36816         2.89995         4.91609
LJ           6.39318         2.53342         3.50726
LJ           3.44599        -3.57514         2.98068
LJ           3.59513        -4.33681          3.0877
LJ           1.19056        -3.37035       -0.594208
LJ           5.11558         4.58339         2.47126
LJ           1.04062         6.36303         -4.5513
LJ            1.6977        -5.75854        -6.21134
LJ           2.38915         1.40951        -1.99802
LJ           2.00758         3.43535       -0.396486
LJ         -0.182255         1.87155        -0.90714
LJ          -2.73825       -0.420542       -0.762257
LJ          -2.05078        -2.99567         5.90797
LJ          -1.41003        -4.52416       -0.687283
LJ           6.29888        -4.21575       -0.316715
LJ           5.31843        0.311417         2.39838
LJ          -2.87418        0.971991        -4.97576
LJ          0.738578         1.29578         1.04828
LJ           5.62218          2.1265         6.42122
LJ           4.04367       0.0588377         4.04216
LJ          0.780692        -3.41868         2.77879
LJ           2.67043        -3.25337       -0.565123
LJ          -2.31979         3.59879         3.70032
LJ           -1.5811         3.00421        -5.29856
LJ           2.88339         2.93995        -3.69297
LJ          -5.75675         1.00044        -5.24268
LJ          -4.02554        -3.46549        -4.64672
LJ          0.754024         5.52105        -3.49727
LJ           4.09452          -5.323         1.19045
LJ           4.73062        -4.90106         2.86655
LJ           2.91302        -5.59687         -3.4528
LJ            2.9316        -5.45352        -5.20351
LJ           4.22922         1.45378         2.60712
LJ          -3.83723        -4.89286         6.09339
LJ         -0.632237         5.64207         -2.9252
LJ          -6.35248         3.01337        -3.95925
LJ         -0.587431         2.77233        -5.19067
LJ           4.79427       -0.886176         4.14729
LJ          -2.04318        0.249442         6.00003
LJ          -2.22348         1.81751         1.95554
LJ          -1.36042       -0.209014         4.45414
LJ           0.26387        -5.66375        -1.86279
LJ           2.81856        -4.36762         2.51727
LJ           2.87726        -2.32881         4.32508
LJ          -1.05568        -3.18291         2.15391
LJ         -0.745489          6.2199          5.2273
LJ           2.25804         1.61047        -5.62944
LJ          -1.42329         -1.7758        -6.43195
LJ           1.52442         2.32063         1.29982
LJ          -4.59225        0.624581        -0.13271
LJ          -1.20758         -4.8964        -1.62036
LJ          -2.33078        -1.77806       -0.653712
LJ           1.52545         3.10749        0.558018
LJ          -2.77264        -3.96556        -0.40402
LJ           4.79894          2.8137        -5.52341
LJ          -3.02599         3.81762        -3.69622
LJ         -0.350019         4.36592        0.753656
LJ           4.65042         1.60908        -3.41844
LJ           2.52133        -3.81958         4.49204
LJ           2.19768        -3.02677        -5.27702
LJ          -4.44218         1.85482        -1.86622
LJ           3.25867        -2.85868         3.29342
LJ           -3.6896        0.179545        -4.18863
LJ           3.05076        -3.62472        -1.57912
LJ           1.50956        -1.70529         1.34571
LJ           3.60599          -1.407        -3.63859
LJ            4.1115        -2.76406         4.76128
LJ           5.61698        -2.12453        -4.54173
LJ           1.73197         3.75644         5.58704
LJ          -3.60097        -6.28301         2.10776
LJ           2.28618        -6.15529         5.57964
LJ           1.02987        -2.00376          3.1522
LJ          0.894306         -3.4097        -3.01372
LJ          -3.22745         4.99144       -0.373307
LJ           4.21207         5.30618        0.336209
LJ           6.43384         -2.1285         3.13192
LJ          -4.31406        -1.28148       -0.695475
LJ          -1.14792         4.87054        -6.24544
LJ           3.19695        -4.32032         6.09476
LJ           6.15117        -3.68754        0.137303
LJ          0.361161         2.19722         5.64039
LJ           3.93074       0.0133262        -4.66158
LJ           -3.7627        -6.13317         -6.2746
LJ          -1.92167        -6.39298        -6.43223
LJ           1.94238        -2.59274         -1.9173
LJ          -3.13641        -3.90325         4.31983
LJ          -6.17772         2.10536        -3.01547
LJ           -2.2675         6.32773         2.86205
LJ          -3.00856         -1.2203         3.56206
LJ          -3.96699        -2.63308        -2.65703
LJ           3.40794         1.55604        -3.75333
LJ          -1.81676        -2.87766        -4.15149
LJ          -6.07227       -0.764642         1.53913
LJ           6.06552        -1.82787        -5.79401
LJ          -2.56198        -3.35645        -2.20209
LJ         -0.405729       -0.477396        -3.31573
LJ            2.2218        -4.68906          3.3488
LJ          -2.08304         2.55932         1.41346
LJ           5.18845        -5.26043         1.90447
LJ          -2.46116       -0.140389        -6.22225
LJ         -0.982992         1.23591         2.68555
LJ          -5.52057         5.21523        -6.09227
LJ          0.329459         2.25186         -3.5341
LJ          -4.82393          3.3421         4.02049
LJ           4.75398         6.41371          3.5038
