108
#Comment!
LJ          -3.06267          1.6515        -1.22298
LJ           2.30657         4.52496         1.38693
LJ           3.90313        -1.61984         -5.8601
LJ          -5.04407         3.81883        -2.87065
LJ          -5.68478         4.44032         1.58185
LJ           2.52048         4.83775        -4.06496
LJ          -4.56661         1.82978        -1.29387
LJ           1.50461        -4.69706         3.68468
LJ         -0.500843         2.29977         -2.8514
LJ          0.911133         6.32613         4.43956
LJ          -4.60943        0.382078       0.0338742
LJ             6.289         -1.2752         1.41766
LJ           5.81088         6.08956         3.54848
LJ           2.01635         3.13353         5.09168
LJ           5.38118        -4.80523        -6.01665
LJ          -3.43985        -1.46519        -1.45219
LJ           3.88377        -3.54465         2.59562
LJ          -3.07839         4.30394          2.2553
LJ           5.86242         3.78804         4.80449
LJ          -1.88278        -5.09417        0.545063
LJ           2.48686         -2.1159         -5.6338
LJ          0.135094        -4.48795       -0.108075
LJ          -4.53052        -5.87174         4.34913
LJ            4.9543         1.93228        -5.17632
LJ          -4.74755         5.38592         2.90945
LJ          -2.33931         -6.2807          1.5392
LJ           4.20167         3.22994        -3.13731
LJ         -0.538237       -0.859172        0.758361
LJ          -6.37518        -1.42802        -3.37702
LJ          -5.66444         1.84807        -0.85886
LJ          -6.12575       0.0612084         5.08846
LJ           5.98494         1.92073        -1.97841
LJ          -2.99112        -3.84666        -5.34775
LJ           4.11518       -0.581208        -2.62504
LJ          -2.61631        -5.23387         3.13147
LJ          -1.43638        -6.07124         5.46138
LJ           5.42172       -0.974682         5.16778
LJ          -6.02645        0.758055        -6.21004
LJ           6.02098         3.24975         -3.8059
LJ           -1.7805        -2.06823        -5.00932
LJ            2.4282         2.25697          6.1813
LJ           1.80984        -1.87479        -3.82213
LJ          -5.11373        0.824142        0.320826
LJ          -1.04402        -5.51783        -3.40536
LJ           3.90603         4.60719         4.60974
LJ          -3.66963        0.504136       -0.811862
LJ          -3.76681        -1.55178       -0.996464
LJ           3.80061        -5.81942         6.05528
LJ          -2.58858        -3.09707       -0.330584
LJ          0.653608         2.64322        -6.10706
LJ         -0.740845        -1.02231         2.30017
LJ            5.6279        -2.87949        0.481403
LJ           4.58003       -0.834876        0.852804
LJ           6.45656        -5.97488       -0.190266
LJ         0.0371383       0.0598132         5.33208
LJ          -2.58242         1.19323         2.34143
LJ          0.076917         3.67896        -1.07195
LJ           0.97739          6.1799         2.42847
LJ          -4.58849        -5.12645          2.5883
LJ           3.98384         6.43848          5.3032
LJ            4.3685        0.529811        -5.60379
LJ           2.33112         3.17364        -1.30407
LJ           1.14437        0.889938        -5.41511
LJ           1.77122         5.04867         1.78886
LJ           2.17032         1.96724        0.548327
LJ           1.62242        -2.87737         1.17816
LJ          -5.98111        -6.28008         -4.7957
LJ          -5.81654         -5.8884        -3.78675
LJ           3.50113        -1.59775        -3.24075
LJ           4.73494         3.07332         5.08433
LJ           1.74199       -0.557751        -1.63378
LJ           3.36014        -2.78838        -3.47378
LJ          -4.58246         4.52907        -3.42746
LJ           6.10432        -2.48697        -1.54155
LJ           5.43318         6.19773        -2.54256
LJ          -3.50474        -6.08536         2.89451
LJ          -1.62269        0.104566         1.45797
LJ            -2.249        -5.69822       -0.660731
LJ          -1.80605        -2.43734        -3.87359
LJ           5.75613         4.39243        -3.44282
LJ           4.65845         -6.0214       -0.577612
LJ         -0.378868       -0.435274        -1.46373
LJ           2.42663       0.0670381        -2.41236
LJ         -0.844385         -6.3741        -2.64569
LJ          -4.67701        -3.90356         -3.3201
LJ          -2.29303        -3.24888        -4.92205
LJ          -3.77674        0.124773        -1.62866
LJ           3.32897         1.00657         5.14406
LJ          -3.50831        -3.03909         3.82642
LJ           3.03359        -4.86372         5.96965
LJ          -1.19951        -5.27622         1.85557
LJ          -3.41836        -2.62854        -3.17363
LJ           2.45016        -5.50635        -3.69535
LJ         0.0662254         1.03468        0.288359
LJ          -3.40094         1.21263        -3.93826
LJ           2.42927          4.1264        -5.61855
LJ          -2.33396         1.33913        -2.04392
LJ           2.34467       -0.777455         -5.1237
LJ         -0.979856         1.40717         2.85592
LJ          -1.07151        -4.61697        -1.77961
LJ           5.95262         4.25602         4.74726
LJ            6.4408        0.663462        -1.99546
LJ          -6.30498         1.31163        0.217641
LJ         -0.665658         3.37204         4.35195
LJ           4.24559        0.412514         5.94046
LJ           -1.4885        0.308361         5.80003
LJ          -5.48203         2.17756         2.49015
LJ           5.67722         3.18263         1.17339
