108
#Comment!
LJ          -2.62693         6.18383      -0.0557996
LJ          0.731755         3.39973         -5.2171
LJ           4.54726        -5.06377         6.22688
LJ          -3.14379         2.44221         6.43639
LJ           -5.0784        -5.80054        0.998786
LJ          -1.04608         3.44984         4.57688
LJ          -6.00406         1.76293         4.40418
LJ           5.97124        -5.82426        -3.07736
LJ           4.31626        -2.39699       -0.409474
LJ          0.387976         5.96661         4.63372
LJ          -1.27644        -1.51539        -4.71195
LJ          -6.15867        -4.24808         2.98507
LJ           1.09226        -1.73355       -0.299922
LJ          0.124891        -6.11503        -3.45834
LJ           4.34917         2.79642         4.09287
LJ           5.40787       -0.369438         3.94524
LJ           5.19444          1.3576         3.44143
LJ           4.40149         5.40618         4.41613
LJ           5.81181         1.80056       -0.437754
LJ       -0.00550347        -2.35952         2.85272
LJ           1.62902        -5.75062        0.483596
LJ          0.729316        -2.14545        0.866947
LJ           5.80613         5.61667         6.14869
LJ         -0.815437        -3.70593         3.07083
LJ           -2.3007        0.675912        -4.19489
LJ           -2.8252        -1.55337       -0.952611
LJ          -4.65133         6.21894        0.779945
LJ           5.05418        -3.84403        -5.11111
LJ          -4.28623         2.00016         -2.4631
LJ            3.5537        0.334032         2.54992
LJ          0.927071        -6.27767        -3.32248
LJ           4.05924         1.79614         3.73198
LJ          -5.43934         4.35981          2.1449
LJ           0.88973        -1.20425        -4.97893
LJ         -0.878718        0.495019         3.96232
LJ           5.01164        -2.15984         5.32097
LJ           2.08572          4.2075        -3.67167
LJ          0.594179        -5.75545       -0.773158
LJ           3.11821         0.22078         4.30035
LJ          -1.62011        -4.58545        -1.29303
LJ          -4.11941        -4.28403         0.82903
LJ           1.20925         -5.0423        -1.19489
LJ           1.19869         1.03702         1.58169
LJ           5.93033         2.42696        -4.94487
LJ            5.6129        -4.43523         6.45763
LJ           2.95394         1.01725         1.86697
LJ          -4.77064         3.75651        0.915068
LJ           5.84943        -3.31967         5.42302
LJ           5.94886         0.11939        -2.18506
LJ           5.92474         -1.4705         3.47696
LJ          -5.84403        -2.99183         3.45125
LJ           5.45136        -2.98442         5.46599
LJ           6.16314        -1.40228        -2.22069
LJ            2.9009         -3.3596         5.25428
LJ           2.11246         6.20111         1.60949
LJ           3.00737        -5.93361          1.3823
LJ          -0.99822         2.16821        -5.70084
LJ          0.833208         5.32727         4.21428
LJ           3.24104        -2.45906        -1.79695
LJ          -4.95055         4.83861      -0.0787956
LJ        -0.0746132         4.34747        -3.61946
LJ            1.1454        -6.21028         2.72189
LJ         0.0239897         1.07215        -3.95586
LJ          -2.62877        -6.34267        0.973432
LJ           2.63606         5.50287         3.38992
LJ          -5.27505         4.18825         2.25643
LJ           3.55186         6.38572       -0.563666
LJ          -4.78411         -3.4701       -0.343516
LJ          -3.85738        -5.73878        -3.53525
LJ           -2.8287         2.23991         2.67579
LJ           3.92308       -0.521399         5.64634
LJ           5.04323         2.28333        0.400447
LJ           3.44914        0.553125       0.0633325
LJ          -4.19776         -3.6234        -3.22363
LJ          -2.27757        -1.18244         5.47675
LJ          0.823597       -0.971779        -4.79215
LJ          -2.32482         4.35658         3.20998
LJ          -3.59869        -3.41343        -3.63977
LJ          -6.40356          5.3171          4.3086
LJ          -3.14031        -6.41175         2.95597
LJ          -3.25024         -1.3465        -1.14057
LJ          -4.96558          5.6977        -2.43321
LJ           5.89196        -1.23421        -2.45873
LJ           4.86754        0.953925        0.388212
LJ          -5.90363        -4.34319        -1.68577
LJ           2.04993       -0.129926        -3.57154
LJ          -4.29378       -0.377292         2.42835
LJ         -0.159167           2.687        -2.66911
LJ          -5.74731        -2.90881        -3.50522
LJ         -0.486373        0.986386        -1.71074
LJ           2.71644        -1.68704        -4.61789
LJ           0.41147        -2.22265         6.27029
LJ           2.64493        0.876463        -5.66926
LJ          -5.68092       -0.683206         5.23023
LJ          0.275885          -3.016        -6.43056
LJ          -5.15425        -5.37871          3.4453
LJ           2.39084       -0.396525       -0.139187
LJ           1.48406        -4.44004        -5.51975
LJ           0.74735         2.40262         4.84014
LJ           1.46135          4.5317         4.86466
LJ          -6.05651        -5.84702        -4.88135
LJ           5.78097         2.35943        -3.31784
LJ           5.27692         4.18834        -1.49995
LJ           -2.0842       -0.101151         5.02105
LJ         -0.954984         3.04002        -3.34126
LJ         -0.859686         3.72822         3.52438
LJ         -0.879938        -6.33583        -4.62932
LJ          -3.72216        -3.93166         4.80439
