108
#Comment!
LJ           1.23756        0.992712         -1.7505
LJ           5.16217       -0.756144         5.25311
LJ           4.69549        0.749052        0.179894
LJ           4.17712         3.10919        -0.19281
LJ          -5.12613         5.68955        -4.04056
LJ           4.60341         2.40802         1.30889
LJ          -2.70459       -0.239445           3.198
LJ           3.89665         -1.4718        -3.65798
LJ          -3.52237         3.80732         2.83483
LJ          -3.68631        -2.18503        -5.14296
LJ          -1.01796         1.48639        -5.50501
LJ          -3.65909         4.48652        0.247872
LJ            2.0154        -5.10987       -0.408768
LJ          -2.38586        -3.97484        -2.11919
LJ          -1.15988         2.92236          -4.812
LJ         -0.930815        -1.72732         4.23201
LJ          -2.21547        -1.92518        -5.60453
LJ         -0.299351        -5.38002        -5.95309
LJ          -2.13999        -2.35893        -4.49738
LJ          -4.22134         -4.5724         4.79974
LJ          -2.20504       -0.824635        -1.63573
LJ           3.83909         6.19663         1.98376
LJ           5.82949         1.56047         4.91808
LJ          0.551581        -4.12366         1.68829
LJ          -4.57883       -0.011797        0.172768
LJ          -5.87163        -5.89296        0.767086
LJ          -6.17326        -4.50763        0.728575
LJ          -4.21049        0.113947        -6.39828
LJ          0.476781         3.73085          1.5416
LJ          0.736803       -0.818926         2.77158
LJ           1.47171         4.74701        -4.52618
LJ           3.07139        -6.45055         1.03931
LJ           4.73364         1.56484         4.70776
LJ           2.31523        -3.77367        -3.06798
LJ           5.58396         3.38078         2.28555
LJ           1.06287        -1.23911        -1.55727
LJ          -3.25068        -6.19783         5.38736
LJ          -2.36117        -0.59855         1.86607
LJ          -1.59424      -0.0698846         4.36565
LJ          -5.85616         4.55604        -1.64338
LJ           5.41581        -2.13858        -2.41261
LJ           2.65077        -4.08001         4.72131
LJ          -1.13973       -0.737439        -1.25835
LJ          -2.60137        -1.47577         2.47254
LJ           2.40619         1.23724         4.06262
LJ          -6.43614        0.927843         1.58029
LJ          -5.34164        -3.22724        -2.74876
LJ          -3.77643        -1.92507        -6.30445
LJ           3.50162        -2.41024         5.70968
LJ           4.48414        0.249846        -6.02521
LJ          -2.62583        -2.91968         1.16046
LJ          -2.22215         4.86979        -3.58227
LJ          -4.84588         -5.4049        -1.30298
LJ           3.87339          4.3577        0.223218
LJ           1.14729         5.28558         -2.1756
LJ          -2.62677        -5.53656         6.13036
LJ           5.86034          2.8685        -2.73548
LJ          -4.53599         3.73332        -3.08515
LJ           5.27298        -6.43351           1.745
LJ         -0.905714        -4.22525       -0.416522
LJ          -3.55178       -0.744707         6.10976
LJ          -2.35192         4.76683           3.104
LJ          -6.41644         4.97168        -4.64175
LJ           5.54011         4.63513        0.945096
LJ           6.45503         5.88944        0.604537
LJ           3.47563          6.0281        -2.79283
LJ           5.22939        -5.90713         0.78582
LJ           2.03419         2.65997         -6.3544
LJ           4.72827        -1.44853        -2.85079
LJ           3.65176         3.15837         1.81036
LJ          -1.23866         1.00663         1.39616
LJ           -1.4151        -1.12216        0.928818
LJ          -4.32518        -4.14378        -2.65172
LJ          -3.12172        -3.80834         4.03245
LJ          -5.51518        -5.00432         -5.7194
LJ           1.93493        -1.80471        0.693617
LJ           2.63406       -0.883465         3.20591
LJ          -1.77917        -1.91501         3.37367
LJ           6.29397         6.03959        -4.48897
LJ          -3.23546        -3.57235         5.37316
LJ          0.545888       -0.765612         6.09929
LJ           3.97839        -1.92483        -2.04795
LJ           3.33593        0.342739       -0.937272
LJ          -1.91897        -1.00522         3.80147
LJ           2.75863         5.91898        -5.24067
LJ          -4.28361       -0.588316         1.19467
LJ          -1.01004         1.57788         2.66336
LJ          -3.45647        -6.10374        -4.80234
LJ           3.38151        -2.93798        -2.29866
LJ           1.45809         6.15863         1.85532
LJ          -6.11106         4.91428         4.37236
LJ           5.48312       -0.740632        -1.79961
LJ            5.0642         4.92846        -3.77421
LJ           1.66641         1.36126       -0.959422
LJ          -5.98376         5.72311        -2.82715
LJ           4.83686        -1.66223        -1.47138
LJ            -4.335       -0.854334         3.11841
LJ          -1.69895         6.44716        -6.41236
LJ          -1.34134        -3.39249         -3.6274
LJ          -5.83594         3.39199        -0.99213
LJ         -0.380454         0.22068         1.66704
LJ           2.37818       -0.208312       -0.810135
LJ           3.17411        0.493009        -4.87402
LJ         -0.416866         1.44078        0.575252
LJ           6.22008         2.29606         2.12217
LJ            3.5343           3.068        0.630992
LJ          -4.22377        -2.30085        -2.60694
LJ          -6.15405         1.55649         5.60561
