108
#Comment!
LJ           4.36625         5.15472        -4.21655
LJ          -4.44356        0.394435         -4.0238
LJ          -4.07796        -1.15672       -0.140351
LJ           1.70452         6.46002         3.34833
LJ         -0.675253        -1.39211        -4.01789
LJ           4.84271         6.42939         3.55036
LJ         -0.925976        -2.54921         1.12399
LJ          0.114035       -0.430577         -3.3723
LJ          -5.75407        -2.79443        -6.06578
LJ           1.41719        -3.06931        -4.33712
LJ           2.71558          5.8274        -5.75859
LJ             4.945        -5.31834        -1.63494
LJ          -5.49259        -0.86696       -0.557277
LJ         -0.450014         4.18792        -4.16438
LJ          -1.10897         2.11733        -1.46972
LJ          -4.16907         4.59785        0.190691
LJ           1.55433        -1.45671        -4.01272
LJ          0.275014        -1.37607        -6.01088
LJ          -2.15342       -0.702681        -2.02134
LJ           2.34943         0.13291        -0.34919
LJ           0.35943        -3.66276        -4.24421
LJ           1.87903        -2.15247        -6.13691
LJ             3.885         1.94274         2.49848
LJ          -6.02831        0.446496         2.83352
LJ           6.27992       -0.395904        -6.35352
LJ          -4.40602       -0.890451        -5.98961
LJ           -5.1485      -0.0446252        -6.08777
LJ          -1.92394         3.02402        -6.10301
LJ           5.91968         1.74146         5.39582
LJ           5.82865         3.70742         3.68297
LJ         -0.700203         3.72283        -3.22146
LJ           1.89089        -2.28859        -5.06424
LJ           4.44934        0.301099        -5.17032
LJ          -0.27327         3.60307        -5.11509
LJ           1.33712        -4.22458        -4.66943
LJ           3.53641        0.238968        -2.02943
LJ          -1.95418         5.48685         3.26983
LJ         0.0242051        -1.51948       -0.189563
LJ          -2.03517         4.10649          1.1588
LJ          -3.50564       -0.296491       -0.251696
LJ           1.60769        -1.94904       -0.705462
LJ          -3.80716        -2.04746        -4.85023
LJ           -5.4765        -6.26726         1.10422
LJ          -0.75005        -3.34457       0.0519661
LJ         -0.078208        -2.50718       -0.922584
LJ          -5.32137         1.28878         1.94142
LJ           2.68733       -0.593123        -2.37182
LJ          -2.46572        -2.32498        0.467324
LJ          -6.26419        -2.52556        -3.90783
LJ          -5.67442        0.277484       -0.831716
LJ           6.42079         1.92825         2.01181
LJ            4.0368         1.70085         3.43724
LJ           2.89824         3.55962        -6.36185
LJ          -3.79923         3.31844       -0.221568
LJ         -0.864585         2.93543        -2.42465
LJ         -0.556623         -2.7558         4.96976
LJ          -1.70128        -1.38349        -5.97469
LJ           5.33754         1.18214        -2.98002
LJ          -3.29472        -3.85657        0.715214
LJ          -4.41388       -0.432823        -1.01987
LJ           -4.5121         5.75692         4.31134
LJ          -2.15034         4.00953         -5.1207
LJ           3.28634        -5.18184       -0.723122
LJ          -4.57197        0.697668       -0.551442
LJ          -3.46576          2.4429        0.670075
LJ          0.274322          5.2139         1.92835
LJ          -2.74658        -4.85592        -1.05841
LJ            2.0944        0.488583         0.57758
LJ            2.6508        -1.54232        0.133748
LJ           1.56552         4.55048         1.96609
LJ          -1.20779        0.844961         1.64358
LJ           2.14735        -4.40096       0.0641202
LJ         -0.958525         -1.5994        0.343726
LJ          -1.47495       -0.843968         1.26985
LJ          -4.11256         2.48142         4.11215
LJ          -4.32319        -6.15617        0.374196
LJ           6.19543        -6.11881         6.22438
LJ          -1.77287        -3.17161         1.00759
LJ           1.22677        -4.50081         5.76374
LJ          0.887368          -3.284         0.95097
LJ           0.50768         3.86434         3.69646
LJ           3.82015       -0.987705        -2.16148
LJ            1.8899        -3.07244        -1.05579
LJ           0.53853        -3.28241         2.04428
LJ          -5.16302        -4.10616        -1.62255
LJ          -4.68128         1.10869        0.768712
LJ          0.315585         1.04622        0.874919
LJ           -1.4973       -0.911852        -1.21582
LJ           6.18899      -0.0425179        -0.43564
LJ         -0.312946        -1.73596         4.17733
LJ         0.0387637        -2.08543         3.15306
LJ           5.05018       -0.632418        -3.73041
LJ          0.972911        0.403607         -1.3616
LJ           3.24898         1.99421        -1.82706
LJ           4.71152         3.29368        0.381112
LJ           2.72991       -0.224175         0.67429
LJ          -5.19811        0.217457        0.161405
LJ          -3.25268         2.06385       -0.610718
LJ        -0.0516593         -2.3973        -3.92284
LJ          -3.91991         3.07272        -1.33064
LJ          -1.30999        0.302684         2.63899
LJ            2.3278        -5.57764        -0.15009
LJ           0.65402       -0.941146         3.83595
LJ        -0.0607381        0.582527         2.24036
LJ           3.88512        0.262741         1.53226
LJ           2.84978         1.04008         1.85471
LJ           3.33942         1.32779        -2.53232
LJ           3.91539        0.884584         2.53862
