108
#Comment!
LJ          -6.41887         3.67999         4.12949
LJ           6.43141         2.32002        -5.71737
LJ          -3.59066        -5.63665        -3.21715
LJ           1.03616        -2.76714           5.791
LJ           5.48088        -4.48047        -3.97026
LJ           4.89948        -4.35395        -4.91395
LJ          -2.23803         4.17431         3.31623
LJ          -1.43383        -2.62589        -3.26167
LJ          -4.37452         2.88909         2.00635
LJ          -5.20377         1.61341       -0.296852
LJ           1.41887         4.31051        -4.32547
LJ           2.67143        0.831212         4.05802
LJ          -1.30002       -0.334311         3.71168
LJ          -4.14513        -4.38415         5.30927
LJ         -0.836888         0.31466          5.0883
LJ       -0.00405675        0.670257       0.0593199
LJ           4.30664        -3.38278        -1.56873
LJ           5.42735        0.471885        -3.38894
LJ            5.6317         1.63254         2.38219
LJ            5.4731        -4.00827        -2.66197
LJ          -2.74063          3.3954          2.8329
LJ            5.2369        -2.40994        0.560737
LJ          0.788613        -4.49277       -0.728504
LJ          0.489106        -1.65177         5.51339
LJ           2.42508         2.10364         5.02201
LJ          -4.53173         4.43546         4.78961
LJ           6.30742        -5.85968          3.8083
LJ           1.73888         6.02612        -4.65824
LJ         -0.588299       -0.531632         1.87211
LJ          -2.10184         4.35514         3.25237
LJ          -3.87586        -6.20968        0.945811
LJ          -2.51948         2.56265        0.789282
LJ          0.937156        -1.00791         2.83586
LJ         -0.460579          5.6456        -5.20193
LJ            6.4374        -1.89712         2.52454
LJ         -0.873413        -3.56114        -2.11676
LJ          -2.49936        -4.04545       -0.266316
LJ          -1.69652         5.15917          3.2449
LJ           0.91548        0.737267         5.06349
LJ           6.03844         2.36424        0.549089
LJ          -6.00523       -0.904889        -6.37694
LJ           4.38925         3.10679          3.3814
LJ          -2.83723        -4.22796        -2.14547
LJ           3.81199        -3.17544         6.42969
LJ           1.01282        -6.14115        -2.17766
LJ           4.88062         3.70555        0.429109
LJ           6.30081        -1.21727         4.24081
LJ           -3.7437         4.99631         6.46063
LJ            6.0356        0.329936       -0.163002
LJ           2.80786        -2.97028         3.97636
LJ           0.57102        -1.10173         4.60823
LJ           3.73432         0.96965        -1.88971
LJ        -0.0352156        -4.12943         6.18999
LJ           6.28245         5.92234        0.252764
LJ           1.93579        -6.43094        0.532389
LJ          -2.66703         6.43464         -4.9719
LJ          -5.72152        0.335185         2.61431
LJ         0.0695131         3.44749       -0.450818
LJ             2.325        -2.82597        -5.07171
LJ          -1.92439        -2.67072         2.50685
LJ           2.93616         5.62466        -2.40731
LJ          -3.90514         2.56331        -2.60503
LJ           3.68604        -1.25802        -0.73328
LJ          -2.06382        -3.48006         -5.7074
LJ           2.95118        -1.08444       0.0483935
LJ           6.43014        -4.06328         -4.8002
LJ           2.38324         2.42097         4.62408
LJ           5.46872        -4.90666         6.08371
LJ         -0.445172         3.47048         5.87205
LJ          -4.14654         2.24912         1.99198
LJ          -1.07085        -3.78901         6.23838
LJ           2.30104          4.9098         3.74385
LJ           4.68778         2.35968         5.39675
LJ           5.78146        -2.00231        -1.32309
LJ          -6.15771        0.760849        -3.70145
LJ           4.34273         3.48361        0.504531
LJ          -1.74151        -3.93911         5.19053
LJ           5.89851        -6.42055         -3.0365
LJ          -6.17297         2.74634        -2.30878
LJ         -0.920595        -3.45416        0.186005
LJ          -1.64566         2.54717        -5.25021
LJ            1.2343         1.50447          5.6237
LJ          -3.26002         4.37605         5.84281
LJ          0.235603         6.07452        -3.11012
LJ           4.80856         2.63735         3.02199
LJ          -3.11907        -2.07154        -4.02646
LJ           3.17569         4.14521        -5.37599
LJ           3.27578         1.99938        -5.34347
LJ          -3.79037         -4.7005        -1.62361
LJ          -3.03389        -2.72463        -4.87943
LJ         -0.649633        -2.12006         2.86202
LJ           1.18397      -0.0535349          5.4739
LJ           1.36251         -1.9269         4.16237
LJ          -1.07964        -1.08575        -5.10042
LJ           1.86539        0.534451        -1.82502
LJ          -1.88548        -3.34704       -0.458166
LJ         -0.113655        -5.02053          1.9486
LJ            5.1235        -5.26872         1.00811
LJ          -4.13757       0.0146248         1.70535
LJ           3.53727        -2.65575        -5.40168
LJ           2.79454        -4.15859         2.06213
LJ         -0.817734         4.11686        -1.92063
LJ          0.506159        -5.05573         5.50283
LJ           5.99521         4.88704        -1.33208
LJ          -1.58166         4.74194         5.43756
LJ          -2.05803       -0.461824         5.22649
LJ           -2.8683         1.15333      -0.0476678
LJ        -0.0596223        -5.08185         6.45581
