108
#Comment!
LJ           3.21472        -5.63718        -1.30863
LJ        0.00907991        -2.18595         5.05077
LJ         -0.111965       -0.504365         5.22476
LJ           4.71371         2.38522        -6.27063
LJ           3.47038          -4.186         6.25192
LJ           1.95725        -5.77066        -1.50066
LJ           1.58244         1.82571         3.20411
LJ           2.20432        -5.81119        -2.45632
LJ          -2.24763        -3.62252         4.95074
LJ          -4.67715        -2.89039         5.58457
LJ          -1.13606        -1.66945        -1.40484
LJ          -5.90285         4.03709         2.93793
LJ           4.39402         5.51363       -0.997299
LJ          -5.93372        -5.67371        -1.39551
LJ          -6.18312        -4.16239        -2.60091
LJ          -1.71801         -2.2382         4.15072
LJ           1.25107        -1.50384         1.83063
LJ            3.4749         5.40339        -4.21264
LJ           1.59141       -0.130452          2.3831
LJ          -4.29378         1.02313         1.11394
LJ          -4.21932        -2.34588        -1.03782
LJ            1.6619        -1.70102       -0.583472
LJ           1.96719        -1.45604        -3.62786
LJ           4.09368       -0.385574        -3.72347
LJ          -2.97442        -2.94903        -2.80832
LJ            2.9297        -5.92997        -5.99069
LJ          -6.14156        -1.82272         4.91542
LJ          -1.07797        -1.01594       -0.589614
LJ         -0.848852        0.863359        -6.33706
LJ           -2.6994         -1.3968        -6.09123
LJ         -0.665003        -3.68452        -2.04858
LJ          0.501543         4.80229       -0.851842
LJ          -5.70674       -0.419766         1.51586
LJ           1.95056        -1.85033         3.80824
LJ          0.463719        -4.77943         5.20318
LJ           4.75169        -1.35682         2.00917
LJ          -4.77452         5.86273        -2.37241
LJ          -5.25361        -1.00945        0.727541
LJ          -2.43033        -5.97743         5.29671
LJ          -2.20778         4.29826        -3.67987
LJ           2.20902         3.80402        -5.39361
LJ         -0.019321         2.26918         2.58564
LJ          -0.56041        -1.52451        -3.86645
LJ          -6.27827         1.27099         -2.3213
LJ          -1.01232        0.296619        0.829509
LJ          -4.88303        -3.55188        -5.08952
LJ          -3.97228         6.36407        -1.10025
LJ         -0.292872         5.18191         1.31417
LJ           5.38579         5.04086        -4.47851
LJ          0.218761         5.35671        -5.10236
LJ           -5.9987          4.1602        0.111166
LJ          -6.19903        -3.56089        -4.03039
LJ           4.78228        0.459282        0.665609
LJ           3.79105          5.7526         3.54455
LJ          -5.06445        -4.72169         -1.1303
LJ           4.32332         -0.4974        -6.28023
LJ           3.88644         1.87939         5.16465
LJ           1.55726       -0.462503          4.3507
LJ          -4.82544        -6.42194         1.81951
LJ           -4.6326        -5.67037        -1.80941
LJ          -2.87738        -6.19797        -3.91445
LJ            6.0455         5.68495         2.65638
LJ          -1.06568        -4.47778        -3.62947
LJ           6.17142        -3.15301        -1.49277
LJ           6.30071         -2.0964         3.83289
LJ           1.47892        -1.04949         2.36366
LJ         -0.102613        -1.74974        -2.05793
LJ           1.46156         3.43129         3.90224
LJ           1.33062        -1.15173        -2.55325
LJ          -5.20089        -5.45909         -4.6037
LJ           3.77607         5.58582        0.213819
LJ           6.43987        -1.31095       -0.311263
LJ          -1.01897        -1.29968         3.19581
LJ          -6.26499         6.43479         5.37663
LJ          -3.54969        -2.53263         0.56187
LJ           2.89724         2.26745         -0.7571
LJ           2.75922        -1.88761        -1.45114
LJ          -6.26276        0.675254         -3.8731
LJ          -1.55934        0.463093        -3.50449
LJ          -3.98447         4.39524         3.59091
LJ           1.08059         -1.7931         2.81327
LJ          -3.25499        -0.78794         5.51426
LJ           1.76349        -6.07883        -1.46346
LJ           5.87208          5.4717        -5.49834
LJ           5.52614       -0.400834        -1.57244
LJ           5.30482        -5.97706        -5.33498
LJ           1.82928        -1.17158        -4.98575
LJ          0.207478       -0.870284        -3.91265
LJ           3.44936        -3.39344          5.9531
LJ           3.28953          -6.161       -0.425662
LJ           1.17451        0.164102          -1.947
LJ           3.50048         2.42591         -3.1985
LJ          -3.06838       -0.149177        -3.88972
LJ          -3.16575         3.49292         2.28141
LJ           5.03336         3.66915        -2.01524
LJ          0.677212        -6.03669        -2.53348
LJ          -1.24208         1.71166        -5.15666
LJ         -0.610283        -2.53839          4.9234
LJ           -5.9059        -4.26684        -0.22623
LJ          -3.94185        -6.25535        -1.89559
LJ          -4.12729         3.11402        -3.56245
LJ           1.30718         4.61578        -4.43502
LJ          -5.85988         2.92013        -2.41792
LJ           3.86556        -5.50329         3.47696
LJ           1.16985       -0.861016        -0.16524
LJ          -4.63339           4.725         2.45991
LJ         -0.336184       -0.427463         4.75836
LJ          -1.16733         -4.4222        -3.01436
