108
#Comment!
LJ           1.40631         2.25887        -4.49407
LJ          -5.91799        0.597146        -4.86427
LJ           6.36484       -0.261908        0.014799
LJ           3.15516         5.63195        -5.78094
LJ           3.31059        -0.39954        -1.72182
LJ            6.4428         3.13502         1.33321
LJ            -0.517        -1.89413        0.872554
LJ            1.4064       -0.333501        -3.80139
LJ          -3.81276        -5.69814         5.75154
LJ          -1.18016        -4.32148        -5.10026
LJ           1.86147         3.98495        -5.52036
LJ          -5.89004         6.24969        -1.49179
LJ           4.93485        -1.51037      -0.0109589
LJ          0.678284         6.00789        -5.03464
LJ        -0.0267739         4.55797        -2.85414
LJ          -4.61698         2.29868         1.86385
LJ           4.68946        -1.34966        -4.54727
LJ        -0.0475125        -1.74417         5.86095
LJ          -3.03523       -0.951058        -2.10192
LJ           4.10209       -0.905386         1.42642
LJ          -0.75877         -3.2416         -4.3461
LJ           2.14813        -4.04074         4.68842
LJ           4.54272         2.75267         2.89367
LJ          -3.21679         3.33255         3.74178
LJ          -5.81768        0.470138         3.57095
LJ          -5.78069        -1.47369         4.68536
LJ          -6.16643        -2.47571         5.16474
LJ          -3.18946         3.32814         4.75276
LJ           3.09695         2.11742         4.31643
LJ           2.51441         5.82574        0.664408
LJ          0.538985         5.29079        -4.23541
LJ           2.57202         -4.1211         5.74984
LJ           5.30228         2.18752         6.00905
LJ         -0.817656         5.87534        -4.74293
LJ           5.41443        -1.67427         4.91003
LJ           3.50912       -0.627565      -0.0451678
LJ          -2.76661         5.96371         5.40438
LJ          0.351759       -0.888759         1.21235
LJ          -1.96995         1.05069         1.33104
LJ           -5.5326         1.24484        -1.01413
LJ           2.93547        -1.19969        -1.05831
LJ          -6.14674        -2.60616         6.44193
LJ          -5.16513         3.49655      -0.0937973
LJ          -1.33685        -2.91007         1.15188
LJ          0.953437        -2.49245        0.441983
LJ          -4.86566         1.97597         3.41136
LJ           4.13358       -0.424792         -2.4398
LJ          -2.71899        -2.66389        -2.18281
LJ           4.87871        -3.64634        -5.08088
LJ           5.37771        0.235206       -0.478911
LJ          -5.31849        0.473743         2.67429
LJ           1.25184         2.03178        -5.89712
LJ            4.8616       -0.452966         3.93547
LJ           5.89584         1.36174       -0.188403
LJ          -1.21998         3.99844         -2.5927
LJ          -1.18446        -3.07847          6.0483
LJ          -2.81001        0.330396        -3.58794
LJ          -6.01867         1.64216        -3.86821
LJ           -4.3753        -5.42187         2.37802
LJ            5.7078       -0.913275       -0.554102
LJ          -4.75904        -4.78748         5.18582
LJ           -2.1894           5.128         6.34149
LJ           4.68137        -2.15943         -3.2356
LJ          -4.44453         0.94856         1.02301
LJ          -3.98104         3.65796        0.312682
LJ           1.99527        -6.10745          4.7435
LJ          -3.76806       -0.778636       -0.964708
LJ           2.42349         1.92876         2.20358
LJ           2.99714        -2.50992        -1.24423
LJ           3.07929         3.51074         2.44088
LJ          -1.68428           0.943         2.70744
LJ           1.38396          -1.386        0.106281
LJ          -1.83766        -2.87036       -0.103901
LJ          -1.65697        -1.85926        0.741692
LJ          -5.22685         4.27135         4.52243
LJ          -6.28096         4.74644        0.964815
LJ          -2.08645         6.31096        -4.42969
LJ          -1.83567        -2.46031         2.51741
LJ           1.77305         6.24803        -5.50555
LJ         -0.885599        -3.55682         2.09728
LJ          0.288592        0.790038          4.4717
LJ           3.72601        -2.62678        -2.02035
LJ            1.7725         -1.8037         -1.5936
LJ         -0.787843        -2.28848          2.0087
LJ           6.29912        -4.89142         -3.0077
LJ          -5.82835        0.919287         1.61352
LJ          0.836981        0.806054         2.12538
LJ         -0.696705       -0.574124        -2.49203
LJ            4.6687        -1.16661        -1.00409
LJ          0.061473        -4.55304         5.49261
LJ           2.88273         -4.5007         4.04692
LJ           6.23964        0.583256       -0.853543
LJ           2.11094         2.24748        -2.19422
LJ           3.11931         3.77668       0.0846699
LJ          -6.37994         3.95407         -1.0058
LJ           4.00817        -1.91172       -0.731984
LJ          -5.52062        0.842627        0.293659
LJ          -4.81561         3.78086        -1.03227
LJ         -0.767051        -2.44654        -1.29557
LJ          -4.49736         3.44219        -2.33756
LJ          -1.06491        0.785718         1.80722
LJ           1.80005        -2.57197      -0.0700757
LJ           1.67098       -0.613461         5.21391
LJ         -0.418912          1.2265         0.90927
LJ           4.24734        0.499439         1.92916
LJ            4.0422         1.59474         1.60903
LJ           5.35273        0.167929        -2.76253
LJ           4.29839         1.64509         2.64286
