108
#Comment!
LJ          0.703075        0.648478        -2.50388
LJ           5.84648       -0.387165         6.11691
LJ             5.305        0.232861        0.198254
LJ           5.12518         4.03732        -1.98089
LJ           6.39434         4.20773        -3.42464
LJ              5.37         1.88248         1.24406
LJ          -1.96147       -0.764503         1.86905
LJ           3.11186        -1.05712        -3.82203
LJ          -3.97042         4.94754         3.44631
LJ          -3.32816        -3.49713        -4.93181
LJ        -0.0137702         2.24651        -5.60633
LJ          -4.03976         5.05284       -0.441793
LJ           2.74815        -4.18245       -0.135455
LJ          -1.29785        -5.03186         -3.5613
LJ          -0.66575         4.06391         -4.3908
LJ          -2.25569        -0.55959         4.25852
LJ          -4.14685        -1.16796        -5.14042
LJ        -0.0926872        -3.73538         6.29777
LJ          -2.53663        -1.46115        -3.84201
LJ           -5.5217        -2.92794         3.74838
LJ          -1.67459         -2.5772        -3.68592
LJ           3.19974         6.38825         2.69912
LJ           5.52448         1.89075         3.68581
LJ          -0.64258         -5.8223          2.2879
LJ          -5.52089        0.996009         1.53474
LJ          -5.56788        -4.54949         2.20989
LJ           6.37447         -3.8668         1.88948
LJ          -4.11322         1.07691         5.78056
LJ          0.473627          2.3945         1.90949
LJ          0.226257        -1.17594         2.05602
LJ            1.2798          4.8801        -4.38613
LJ           3.01973         -5.2098         2.55253
LJ           5.00255         3.47951         4.87965
LJ           1.40337        -4.73481         -3.6363
LJ           5.28569         2.71417         2.22526
LJ           1.89944        -1.00379      -0.0745619
LJ          -2.65498        -5.59144         6.16976
LJ         -0.901585        -1.04232         1.98525
LJ          -2.04641        -0.14239         3.25555
LJ          -6.24166         3.63688        -1.47578
LJ           5.06354        -1.30345        -1.88795
LJ           3.98463        -3.56129         5.28988
LJ          -2.45956         0.53019        -1.31407
LJ          -2.36839        -1.83299         2.80847
LJ          0.682024       -0.754939         2.82877
LJ          -5.47981        0.910882         2.73174
LJ           -6.3436        -2.42277        -2.69571
LJ          -3.69283        -2.36278        -5.25091
LJ           3.54116        -3.46766         6.34298
LJ           4.35827     -0.00121451         4.31254
LJ          -3.08505        -2.19589          2.0677
LJ          -1.66528         3.65575        -4.03018
LJ           -5.7259        -4.14484         0.23294
LJ           4.05583         3.35613        0.537542
LJ          0.460045         4.94932        -2.18366
LJ          -2.09362        -4.64041         6.24189
LJ          -5.59865         2.59906        -2.13531
LJ          -4.85915         3.09302        -3.59082
LJ           6.32538         6.08442          3.3927
LJ           1.15362        -2.87224       -0.219824
LJ          -3.92961        -1.95589         5.67707
LJ           -2.2225          5.0144         4.15959
LJ           5.90392         2.95196        -3.73086
LJ          -6.36314         3.11202        0.947045
LJ           -5.8744         5.10375       -0.239754
LJ           3.19911        -6.44391         -4.2607
LJ          -6.13841         4.51209        0.792577
LJ           2.39552         2.60916         5.17126
LJ            3.9112        -1.57936        -2.20878
LJ           4.36617         3.13395         1.88069
LJ           -0.7287        0.346812         1.36112
LJ         -0.226672       -0.568148          1.2612
LJ          -2.51432         -3.5146        -2.20776
LJ          -2.98286        -3.42396         2.61715
LJ          -6.05544         6.44374         5.52809
LJ           3.32288     -0.00399595        0.811565
LJ           1.31529        -3.31724          1.0219
LJ          -1.23265        -2.40083         2.80506
LJ           4.98364         5.98168        -4.89777
LJ           -3.0576        -2.98716         3.57726
LJ          0.489012       -0.886152         4.68701
LJ            3.6116        -2.87208        -1.75994
LJ           2.81314        0.206529        -0.99357
LJ          -1.36885        -1.15002         2.91051
LJ           4.27199         -6.0616        -4.75897
LJ          -4.80932       0.0975286        0.980724
LJ         -0.502694         1.24505         2.46577
LJ          -2.37654        -3.78881        -3.46479
LJ            3.8891        -2.97673        -2.89011
LJ          0.938585        -6.31143         3.66491
LJ           6.24335         5.46477         4.37268
LJ           5.86703       -0.297918        -1.62538
LJ           3.66234         4.51485        -3.25009
LJ           2.32694         2.14063       -0.639178
LJ           6.16699         4.34164        -2.23662
LJ           4.37941        -1.98254        -1.22217
LJ           -4.9969      -0.0648279         2.64725
LJ          -2.86525         5.80039        -4.61388
LJ          -1.42881        -3.34278        -2.02476
LJ          -4.98469         3.20191        -1.44718
LJ          0.383958         1.06267         1.91361
LJ           2.47814       -0.807101        -1.16642
LJ           2.71125        0.161819        -5.76853
LJ         -0.367105         1.70074         1.22482
LJ           5.35345         1.58523         2.45627
LJ           3.19937         2.27099        0.948366
LJ          -4.94441        -1.34259        -2.68842
LJ           5.82603         1.63212         4.71635
