108
#Comment!
LJ           0.86659       0.0759937        -2.91779
LJ           4.36054        -1.19534         2.99964
LJ            3.1833       -0.119755        0.856007
LJ           4.81267         2.77865        0.714951
LJ          -3.80019        -5.27119        -5.98823
LJ           3.69152         4.40769        0.462502
LJ          -2.67116       -0.758251         4.01125
LJ           4.45506        -1.98656        -4.19835
LJ          -1.90359         3.55691         1.88472
LJ          -3.66343        0.149007        -6.10139
LJ          -3.15073       -0.328319        -5.08887
LJ          -3.53566         2.93263        0.175144
LJ           0.91119         5.81164        -0.69568
LJ          -4.32963        -1.30576       -0.106453
LJ          -2.15723         1.43233        -5.33186
LJ          -1.35551        -2.70743         2.63931
LJ         -0.270462        -4.00304          6.1295
LJ         -0.917896         4.44634        -4.94882
LJ           -2.8059        -2.86684        -6.42654
LJ          -3.86952         3.84028        -5.71493
LJ          -2.25587         1.61421         1.84316
LJ           3.76616         5.65595         1.42051
LJ           6.41452         1.04391         -5.5419
LJ           1.07358        -4.50372         3.12243
LJ          -2.61486        -2.58347        0.300042
LJ           5.89116        -6.32818        -1.82268
LJ          -5.41141         5.58085        -1.39155
LJ          -5.46168       -0.964287        -4.77238
LJ           0.87082         6.38039         1.01267
LJ           1.56591       -0.170633         4.05585
LJ            1.6325          3.9265        -3.95113
LJ           3.62472         6.39271       0.0910934
LJ           5.59626        -1.24107          4.4704
LJ           3.33849        -2.82255        -1.62816
LJ           5.55376         5.24581         1.59326
LJ         -0.684601        -1.27432         -5.4804
LJ          -3.67234         6.27889          5.0367
LJ          -4.38252       -0.311718         1.60765
LJ           -1.4834       -0.870076         5.77761
LJ          -5.88378         4.45874        -0.40531
LJ           4.74207        -2.94008         -2.5853
LJ          0.128249        -4.86456         4.02873
LJ          0.658404        -3.13723        -1.49865
LJ          -3.56932         0.23956         2.42192
LJ           5.58912         4.52088          6.2639
LJ           5.38723         0.68416        -0.46405
LJ          -5.10053         -3.2485        -1.70134
LJ           -2.9956       -0.313352         5.85552
LJ           2.16641        -1.25131         5.28899
LJ           5.37025        0.105026        -1.35768
LJ          -1.64107        -3.74594       -0.129222
LJ          -2.26849        -5.62484        -3.50643
LJ          -2.88907         4.40748        -2.39945
LJ            3.3516         4.85137       -0.446126
LJ           2.50848         5.87369        -2.19639
LJ           -4.1215         5.06852         5.59161
LJ           3.56537         3.22138        -3.95033
LJ          -4.50728         5.16022        -1.90612
LJ            2.2845        -4.29208       -0.340777
LJ          -4.76088         6.30121       -0.808082
LJ          -1.13789        0.383161         5.69934
LJ          -2.86054         3.85277         2.56887
LJ           -4.9786         6.14818         5.69719
LJ           4.14325        -6.23151         1.10299
LJ           5.97537        -6.11807         2.38338
LJ           3.15259        -5.99413        -2.04453
LJ           3.29152        -1.42991         -1.2907
LJ           1.36071         2.74381        -3.73645
LJ           5.49283        -1.92627        -2.56291
LJ           1.49511          3.7355         3.03387
LJ          -1.51005        0.787874         1.18022
LJ          -4.15315        -1.30316         2.86895
LJ          -6.45413        -3.25628        -1.95564
LJ          -1.43273        -3.66443        -6.25983
LJ          -4.28889        -2.58957        -3.85328
LJ           2.28741        -1.07891        -1.41503
LJ           5.10111         3.81785        -5.70682
LJ          -1.82525        -1.56329         4.66778
LJ          -5.26116         -6.4499        -4.22387
LJ           -2.2187        -4.21579        -5.18779
LJ          0.393606       -0.696506        -4.22728
LJ           4.54546        -1.05417        -3.29227
LJ           3.26669       -0.409137        -1.41632
LJ          -2.42595       -0.867376         5.19238
LJ          0.217559         4.64947         6.28648
LJ          -3.48327       -0.371753       -0.120247
LJ           -1.7554        0.662597         2.36967
LJ          -5.58435         3.16043         5.93168
LJ           4.35399       -0.925936        -1.63127
LJ            1.5919            5.19        -1.63725
LJ          -5.07485         3.95637         4.33447
LJ           6.05834       0.0691392        -2.73584
LJ          -3.73568          4.9601        -5.18738
LJ           2.01122         1.65637          1.3773
LJ          -3.90124        -5.82263         -4.2388
LJ            4.9117        -2.33703        -1.57304
LJ          -1.82717        -1.82248         3.32026
LJ         -0.541243        -4.51724         3.25244
LJ         -0.460751        -5.09582         -5.7649
LJ           6.33411         4.89371        -1.25787
LJ          -2.83458        0.578367         1.50217
LJ           2.81955        0.392635      -0.0280475
LJ           3.94705         1.09442        -3.38474
LJ          -1.58255        0.145457        0.313647
LJ          -5.94024         3.11873         1.30148
LJ             4.491         3.22484         2.05386
LJ          -1.86197        -3.93219         -1.5939
LJ          -5.80035         1.35569        -6.28164
