108
#Comment!
LJ           4.22203        -5.27609        -2.28615
LJ         0.0979024         3.35156         2.41992
LJ          -5.71755         2.39829        0.433662
LJ           3.82036        -1.47964         6.10049
LJ           4.65574         4.26401         3.04776
LJ           4.76711         -1.7631        -2.49487
LJ           6.34865         -2.0075        -3.47462
LJ           1.93335         1.55725         4.47446
LJ          -2.99175       -0.311563         -3.0067
LJ          -3.96068          4.4032        -4.10584
LJ          0.730321         3.42348        -2.11065
LJ           6.21286        -1.60163        -1.99015
LJ         -0.526276         5.90039        -0.88408
LJ           1.80512         4.64287        -1.39858
LJ           6.13831         -1.6879         2.16038
LJ           4.62751        -5.89936        -1.29922
LJ           -5.0303        -4.37791         4.74799
LJ          -1.57834         -4.8973        -0.55046
LJ          0.467787         4.44364         5.02425
LJ          0.886495        -3.29508         -3.6365
LJ          0.664751        -2.54239        0.169889
LJ          -1.98855       0.0946952       -0.643891
LJ          -3.53646        -6.40324        -5.11313
LJ        -0.0612812         1.00779         5.48535
LJ           2.28121        -3.07295         1.16297
LJ          -2.64648        -2.89314         1.31099
LJ          0.717014        -4.25554        -2.33845
LJ            0.5853       -0.949097        0.968196
LJ          -5.53335         -1.9507         2.24388
LJ          -2.46111       -0.292215        -3.72948
LJ          0.398373        0.746701        0.799569
LJ          -1.51746       -0.984853         4.21386
LJ           5.57941      -0.0863936       -0.243579
LJ           1.23784         5.94903        -6.35949
LJ           5.68886         4.66684         1.82215
LJ           3.46482         6.11942         -3.7249
LJ          -6.01214        -2.50812         3.82426
LJ            4.9169        0.765001         6.37899
LJ         -0.537188        -2.42858         4.66894
LJ          -5.40533         6.36031         4.34627
LJ          -6.28805        0.863084         2.70555
LJ         -0.184503         4.45087        -1.42612
LJ          -6.28961         3.88253        -2.67498
LJ          -5.31287        -2.11798        -4.55992
LJ          -1.14581         5.14178        -6.32999
LJ          -3.33768         1.99347        -5.51353
LJ          -1.54983         3.13529        0.885737
LJ          -1.09752         6.19861        -6.42497
LJ           1.38783         6.21924         -5.1394
LJ           -4.1481        -6.31336        -4.52968
LJ          -2.25642          4.7228      -0.0412923
LJ          -5.66914         1.38138        -5.51517
LJ           3.47566         4.74784        -3.59837
LJ           6.08775        -5.87067          3.1796
LJ         -0.483647        -4.88449        -4.00939
LJ           -1.3643         1.32578        -1.73954
LJ          -2.70662        -4.57548          1.9144
LJ            1.8977        0.618245         2.68297
LJ          -5.91308         5.17646        -4.04796
LJ           2.15136        -6.23729        -1.12712
LJ           5.04026       -0.306895         6.22166
LJ          -4.38216         6.07176        0.912392
LJ          -2.98687          1.3492         4.81929
LJ            -6.432         1.09628        -2.25363
LJ           5.60243        0.889376        -2.37573
LJ           3.02938        -3.26288       -0.153643
LJ           -5.4017        -1.63818        -4.26705
LJ           2.90329        0.848209          3.0785
LJ         -0.306731        -1.10187        -5.14871
LJ         -0.163422         4.30414         1.36365
LJ          -2.71232        -2.35253        -1.93312
LJ          -2.26347        -4.31127        0.549955
LJ           3.89904        -4.69579         6.18211
LJ          -5.67981        -3.97413       -0.766945
LJ         -0.811515         4.26504         1.12728
LJ          -3.09359         5.86043        -1.40507
LJ           -2.0116        -4.49109        -2.08858
LJ           3.18548        -2.88798         1.04823
LJ          -6.23583        -0.93134        -6.22472
LJ           3.55382       -0.428045         6.26754
LJ          0.239588         4.42939        -3.73626
LJ          -2.21416         3.85985        -1.08318
LJ          -3.77958         3.42055        -2.66528
LJ           2.19076         6.04563         3.10659
LJ           2.44128      -0.0107113         3.20851
LJ          -2.55462        0.130834       -0.127275
LJ         -0.552913        -6.24285         3.61056
LJ          -5.84122         0.66949         2.52283
LJ            3.4755        -3.79536        -6.43572
LJ          -4.83869         1.24971        -2.49193
LJ           5.59115        -2.48805         4.19602
LJ          -5.49725         5.45192         3.15203
LJ          -3.48047         1.69327         2.04015
LJ           2.40705        -3.26556        -2.95508
LJ          -3.21458        -2.69653        -2.61281
LJ          -6.17308         2.16961        -4.69042
LJ          -6.33717          1.7236         -2.2421
LJ          -1.10114       -0.583321         5.31174
LJ           1.28496       -0.998482        -1.37447
LJ          -2.17138        -3.78028        -1.61259
LJ          -2.88657        -1.01039        -0.32587
LJ          -4.97176         -1.2922         5.28861
LJ           3.98797         5.79088         5.87502
LJ          0.842529         4.82565        -4.62081
LJ           4.82499        -1.27634        -5.41939
LJ           5.21436       -0.873307        -3.53167
LJ           -3.8847        -2.05834        -2.32936
LJ          0.161067        -2.19945        -3.02993
