108
#Comment!
LJ           3.83147         3.77139        -3.00281
LJ          -4.11429        -4.45762        -5.42264
LJ          -1.16958        -5.23481        -3.04401
LJ          -2.34495         5.17089          4.2312
LJ           2.34236        -3.38786        -3.55981
LJ           -2.7815          1.7134        0.686277
LJ          -2.88645         3.70451        -5.42698
LJ          0.446773        -4.10099        -3.21691
LJ           3.59614         5.25065        0.642974
LJ          0.862495        0.283325         2.13279
LJ          -5.78704        -2.04042         1.40441
LJ            2.5157        -5.86378          3.9132
LJ           5.72402        -5.14051         4.23968
LJ           3.89471         4.99064        -4.28278
LJ           3.30391       -0.429952        -5.55864
LJ          -4.36166         5.53404        0.619135
LJ         0.0694613        -6.39981        -1.32722
LJ           1.83277         2.83766         4.05996
LJ          -2.84328         1.26541        -1.48199
LJ         -0.791925        -2.49699        -5.72917
LJ          -4.21946         5.49817         2.06082
LJ           5.45872        -6.21446          5.5158
LJ           0.26486          2.3886         1.97606
LJ           3.29478        0.558112        -3.09155
LJ           1.52856         3.98991         2.94021
LJ           3.89549         5.18619         1.31815
LJ          -1.33013         2.67632        -2.34922
LJ           6.31325         5.06489        0.831354
LJ          -6.08041       -0.698336         5.33926
LJ          -2.80197          1.2339         3.65008
LJ           -5.4106         2.43224         2.44818
LJ           5.04745         4.02255        -2.96963
LJ          -3.46982         2.51256          2.6372
LJ           -2.6637        -5.56571        -1.72735
LJ          -2.29769        -4.85968         -0.4691
LJ           3.91519         2.42599        -3.00792
LJ         -0.730107          3.0886        -6.27468
LJ          -6.01053         6.11797        -3.94945
LJ          -2.62552        -3.47823        -4.10199
LJ          -1.80531         4.99188        0.646224
LJ          -1.05308         2.56245        -3.14499
LJ          -6.33831        -1.90906        -2.10321
LJ           4.12211        -5.81991        -4.63991
LJ            6.4066        -5.27581         2.72766
LJ          -3.90453        0.487422        -6.11216
LJ           3.51937        -1.76112         5.21772
LJ           1.97756         2.42165         5.77142
LJ         -0.646271         5.39661         2.20269
LJ           5.80774        -2.83661          1.0074
LJ           -4.2187        -3.19869        -4.13552
LJ           3.81396        -2.56963        -5.04205
LJ          0.893196         4.61964         3.77744
LJ          -3.71426        -1.31452    -0.000768851
LJ           2.10206         6.36802         5.52315
LJ           1.03237         -3.7796         4.07155
LJ           6.37597          1.8902         5.58834
LJ          -2.07501        -4.80827         2.16174
LJ          -5.92412        -5.88676        -2.97072
LJ         -0.359348        -5.08237         2.94629
LJ          -3.52623        -3.31671        -1.21902
LJ           4.30562         6.29431         3.93408
LJ          -1.82792        -3.83872        -2.74103
LJ           -2.5091         6.01712       -0.505881
LJ           -2.6095        -1.01609        -1.67367
LJ           5.38773         -3.4057         2.49052
LJ          -3.81669        -1.15149         6.00822
LJ           5.47691         6.20301         3.49977
LJ          -6.08793        -4.26668         2.38454
LJ          -5.80271         5.54886         5.86401
LJ          0.686201       -0.824805        -1.68783
LJ           5.18206         -3.6397         -5.4541
LJ          -5.03078          3.2625         1.40845
LJ           6.35044         3.87653        -1.05988
LJ          -5.79523       -0.863725        -3.54415
LJ           4.61644        -2.70219          4.2025
LJ          -4.31518         1.92515         4.69463
LJ           1.35543          -1.195         2.40734
LJ          -4.63742       -0.415311         4.43863
LJ          -3.83625         2.31288         4.82985
LJ           2.15499         5.11057        0.736083
LJ          0.524084        -5.68455           -4.74
LJ          0.640495         5.05777        -1.21465
LJ           -3.3169         4.78775        -3.16812
LJ          -4.05701        -2.99521         3.47694
LJ           2.90479       -0.498422        -1.36385
LJ         -0.315612         1.65208        -4.84764
LJ          0.179525         2.94481        -3.34091
LJ          -2.99652         2.38146          6.3658
LJ          -2.95168        -0.66946        -1.02468
LJ          -4.45558        -3.26032         6.10591
LJ          -2.11772         -3.9909        0.816279
LJ            5.8909         3.67949       -0.881294
LJ          -2.07852        -3.49984         6.30693
LJ           -3.9341        -3.24102         1.47671
LJ           3.18352         6.41172         4.58499
LJ           2.52278         5.71381         -2.2753
LJ           -2.0376        -1.31678          3.8525
LJ            5.8682        -5.99414        -2.79058
LJ          -2.44527       -0.267595         5.76863
LJ           2.95683        -3.91896        -5.03901
LJ          0.078346         6.36171        -1.84538
LJ          -2.55407        -6.06662         1.89225
LJ          0.371117         6.12035         3.46476
LJ          0.105899        -3.72755        -4.46493
LJ          -5.73064        -5.37848         6.11201
LJ          -4.16093         1.63719        -1.14907
LJ           1.40953         1.47461         3.02814
LJ          -3.25688        -2.34221        -4.04527
