108
#Comment!
LJ           5.00321         -4.6358         1.69821
LJ           5.71807        -2.60814         6.46197
LJ           5.16781         2.44047         6.07678
LJ           2.66772       -0.280468       -0.471148
LJ           5.04006        -2.81714         5.79175
LJ           5.61934         5.78238         5.34645
LJ           5.93285        -1.04989        -3.34048
LJ          -3.13556        -4.07563        -1.80262
LJ            1.6368         5.21376        -4.36508
LJ           -6.0936        -5.10689         5.46974
LJ          -5.84082         2.50241         3.33527
LJ          -5.73169         4.98107        0.617325
LJ          -3.55782        -3.56565       -0.739832
LJ           4.07841         5.88434        -3.39331
LJ          -2.94199          1.1294         6.08623
LJ           3.10595         2.11029        0.577289
LJ           1.96067        -4.85884        -6.02299
LJ          0.858843       -0.215997         -2.9125
LJ          -2.82177         -6.1929        -2.95467
LJ           2.14237         3.94568        0.206151
LJ           4.48352         2.40391         -4.9408
LJ          -5.78406        -4.56726         5.11112
LJ           3.34375        -3.11915         5.13974
LJ           3.19681       -0.623002         3.74007
LJ          -3.81073        -3.85701         5.53339
LJ          0.281254         1.32428        -3.52263
LJ           5.55703        -2.61216       0.0758849
LJ           -5.2437        -6.01022          4.2036
LJ            1.9954         5.36375         4.31039
LJ          -2.07355         4.17791        -3.97816
LJ          -2.40245        -1.97542        0.488384
LJ           3.22909        -2.66538         4.00297
LJ          -2.67576        -3.08398        0.936548
LJ          -5.08988        -4.84783         5.46036
LJ           3.03757        -3.44911        -3.62717
LJ          -4.82095        -2.11701        -4.90754
LJ         -0.235028         3.83075        -6.24338
LJ          -4.97048        -1.64449        -1.75014
LJ            1.1815        -3.28411       -0.956188
LJ           2.58997       -0.420766        -6.18904
LJ          -4.75136         4.77096         5.01491
LJ           1.67518        -6.21726         2.07015
LJ           3.96123        -2.05105          0.6711
LJ           4.01779        -6.46004         2.97069
LJ           5.04375       -0.576947        -2.80767
LJ            5.6127         5.97666         -3.3042
LJ          -4.62619          1.9786        -5.96277
LJ          0.431979        -3.63484        -2.27979
LJ           3.19696        -2.72628        -1.13339
LJ           4.31347        -1.06681         3.55744
LJ            -2.101        0.668236         3.05426
LJ           1.47226         2.15144         3.71382
LJ           4.46955         3.42702        -5.18095
LJ           -1.7413         1.75639        -4.02139
LJ          -2.99891         2.40452         -1.8136
LJ          -1.94825        -3.53553        -3.28183
LJ           4.53325         5.95783        -1.73296
LJ         -0.934853        -5.03805       -0.593153
LJ         -0.246176         1.08948        -0.42728
LJ          -4.62093         1.51272        -3.98073
LJ         -0.212132         3.65204         6.42563
LJ           5.23668       -0.703451        -5.01902
LJ        -0.0305788        -4.88799        -5.17137
LJ           4.47298        -4.84148         3.03184
LJ          -3.13862        -6.36746       -0.677274
LJ           2.70463         6.10928         4.40217
LJ           3.08331         2.85942        -1.74667
LJ           3.72395          -2.968        -4.71655
LJ          -5.24789         3.84112        -3.18388
LJ          -4.28796         1.11842       -0.379138
LJ          -3.09446         -1.0354        -1.58026
LJ           5.58752        -1.15965        -5.02966
LJ           5.61444        -2.79674         2.11656
LJ          -3.03461        0.506105        -2.04953
LJ           2.17519       -0.452049         4.74573
LJ           1.19854         4.73086         1.70447
LJ           3.95546        -4.64713         4.54938
LJ           1.62071       0.0775284       -0.390134
LJ          -4.43096         -2.3717         -4.0092
LJ          -2.92653        -1.88279         4.45326
LJ          -3.00316        -5.27457         3.32044
LJ          -4.88424         2.00601         4.10804
LJ           5.10552        -6.20845        -4.04804
LJ          -1.13329         3.60886         -5.1282
LJ           3.24116        -2.09069        -1.34058
LJ           1.95674        -3.14724        -3.86318
LJ          -3.16454        -5.83239        -4.96299
LJ          -4.81193        -5.86953         6.07215
LJ           2.09036        -5.85699        0.838283
LJ           4.80831         4.29149         4.77997
LJ           2.25688         6.21623         5.29079
LJ          -2.45209         3.51591       -0.254651
LJ           5.73754           4.583         3.86395
LJ          0.773202        -3.59788         2.16269
LJ            5.2679        -6.06836       -0.995297
LJ           2.32049         4.73583         5.97418
LJ          -4.37979         4.25973         6.29724
LJ            5.1653         6.28837         4.93583
LJ           5.13795        -4.89995        -1.89614
LJ          0.495624        0.938936         2.62542
LJ          -5.41666        0.472751        -5.18796
LJ          -2.20235         3.96212         3.50029
LJ          0.858352        -3.09294         3.76985
LJ          0.726331         0.28447        -5.51513
LJ           3.10106        -3.08156         2.88294
LJ          -3.91507         1.93898         -5.9654
LJ           1.70508        -2.32655        0.496815
LJ           4.68367        -2.86662         0.83368
