108
#Comment!
LJ           1.20902          2.0158        -4.49644
LJ          -5.98324        0.541354        -4.99121
LJ            6.3638       -0.214369      -0.0404601
LJ           3.31675         5.52035         -5.5642
LJ           3.56489       -0.215508        -1.46068
LJ            6.4483         2.89449         1.28222
LJ          -0.56993        -1.81791        0.928073
LJ           1.50712       -0.377714        -3.80783
LJ          -3.71402        -5.90888         5.62062
LJ          -1.38268        -4.32659        -5.08861
LJ           1.77624          3.8982        -5.54075
LJ          -5.73928         6.15725         -1.4839
LJ           4.62861        -1.56453       0.0197576
LJ           0.56504           6.195        -5.16446
LJ        -0.0554566         4.73324        -3.00416
LJ           -4.6211         2.12288         1.96331
LJ           4.91264        -1.35219         -4.5642
LJ        -0.0270237        -1.72979         5.79996
LJ          -3.00577       -0.954675        -2.19494
LJ           4.24187       -0.989899         1.56109
LJ         -0.811426         -3.2991        -4.43261
LJ           2.16636        -4.17713         4.60341
LJ           4.59089          2.8397          2.9323
LJ          -3.06062         3.55809         3.64955
LJ          -5.81286        0.489554         3.54248
LJ          -5.94874        -1.53722         4.56669
LJ          -6.21649        -2.59847          4.9212
LJ          -3.29953         3.16828           4.756
LJ           2.88838          2.1128         4.23858
LJ           2.28412         6.19201        0.634392
LJ          0.522239         5.21422        -4.11075
LJ           2.62199        -4.27051         5.50942
LJ           5.30071         2.35341         5.92875
LJ         -0.772005         6.04879        -4.67094
LJ           5.68828        -1.47051         4.67443
LJ           3.43717       -0.714206       0.0448813
LJ          -2.79869         6.14742         5.52912
LJ          0.301234       -0.835466         1.29302
LJ          -2.00125        0.806074         1.35316
LJ          -5.50675          1.4221       -0.953815
LJ           3.16457        -1.11939         -1.1292
LJ          -6.30426        -2.66069         6.39712
LJ          -5.01308         3.29566       -0.243252
LJ          -1.39221        -2.85554         1.35178
LJ           0.93594        -2.46353        0.640083
LJ          -4.83004         1.98202         3.51822
LJ           4.35781       -0.469137         -2.4842
LJ          -2.78501        -2.66633        -2.36713
LJ           4.75123        -3.72205        -5.16261
LJ           5.12804        0.241542       -0.451126
LJ          -5.08315        0.421633          2.4128
LJ           1.07932         2.05852        -5.61153
LJ           5.00497       -0.713195         3.72419
LJ           5.60612         1.36057      -0.0638594
LJ          -1.12603         4.09104        -2.57908
LJ          -1.23616        -3.15993         6.06878
LJ          -2.94272        0.460121        -3.46973
LJ          -5.95337         1.73592        -3.85723
LJ          -4.45076        -5.53255         2.49588
LJ           5.41566       -0.848133       -0.518493
LJ          -4.71489         -4.6197         5.21423
LJ          -2.23388         5.24141         6.20977
LJ           4.73915        -1.88796        -3.37897
LJ          -4.51739        0.923134          1.1675
LJ          -4.12227         3.72227        0.263077
LJ           2.12335        -5.98828         4.94676
LJ          -3.84121       -0.520501       -0.856937
LJ           2.48758         2.01584         2.32236
LJ             2.955        -2.38983        -1.30706
LJ           3.20343         3.42271         2.46708
LJ          -1.64297        0.904574         2.70266
LJ           1.39904        -1.30608       0.0753297
LJ          -1.89869        -2.88095       -0.211021
LJ          -1.67924        -1.93171        0.542493
LJ          -5.29587         4.38547         4.54459
LJ          -6.43036         4.52051         1.00773
LJ          -1.74418         6.26827        -4.18881
LJ          -1.75817        -2.46282         2.62535
LJ           1.95411          6.2388         -5.4804
LJ          -1.04974        -3.58163         2.18969
LJ          0.276339        0.567604         4.52525
LJ            3.7474        -2.74968        -2.01363
LJ            1.8385         -1.7171         -1.5656
LJ         -0.806786        -2.21844         2.02463
LJ           6.19178        -4.95274        -3.10296
LJ          -5.74559         1.05564         1.74318
LJ          0.800197        0.806976          2.2137
LJ         -0.656713        -0.56702        -2.58651
LJ           4.69195        -1.22611        -1.13196
LJ          0.083112        -4.73296         5.62135
LJ           3.07462        -4.70794         4.13151
LJ           6.27143        0.460208       -0.853354
LJ           2.19402         2.37584        -2.25472
LJ           3.10334          3.6849       0.0520154
LJ           -6.2129         3.99631        -1.08086
LJ           3.92767        -2.11021       -0.852778
LJ          -5.58793        0.836167        0.367589
LJ          -4.92086         3.93955         -1.1469
LJ         -0.826871        -2.44533        -1.07918
LJ          -4.53497         3.45804        -2.32867
LJ          -1.04588        0.864745         1.82522
LJ           1.82449        -2.46675      -0.0852853
LJ           1.74153       -0.569307         5.32897
LJ          -0.39824         1.27763        0.794395
LJ           4.25803        0.534056         1.93631
LJ           4.08718         1.59524          1.5926
LJ           5.52822       0.0889479        -2.76921
LJ           4.29177         1.65181          2.6287
