108
#Comment!
LJ          -2.26178        -5.68224         3.59624
LJ          -3.63261         -2.4522         2.80202
LJ           3.75933        -1.08652        -5.70639
LJ           4.60612        -3.13034          3.8676
LJ          -3.31767         0.39778        -3.54688
LJ          -4.11739        -5.13384        -2.38261
LJ           1.32432         -3.7397         5.81768
LJ           5.57915         5.08067         -4.2304
LJ          -3.17828        -5.56877        0.890731
LJ           1.40536         1.77992        -1.24707
LJ           5.68626          4.3701        -3.39717
LJ          -3.84252        -2.02736         4.24838
LJ          0.526697         -2.4078        -2.81007
LJ          -2.93803        -4.78461        0.931545
LJ           6.12101         4.63551          6.0477
LJ           5.41969         5.14455        -2.97007
LJ         -0.953599        -2.47272         6.25902
LJ           2.53979        -4.69369         -3.7444
LJ          -5.29402         1.83198        -1.30366
LJ           6.17175        -4.38586         2.10072
LJ           4.97271         6.10007        -1.74615
LJ           3.70789         -4.5873         4.04472
LJ          -1.07295         -3.5233         3.53471
LJ          -3.41954         3.25443         4.54709
LJ           1.03095        -6.42056       0.0180134
LJ         -0.909518          5.6599         4.95878
LJ          0.574709        -6.29903        -4.05487
LJ         -0.449796         1.18241         3.55559
LJ         -0.840699         2.56863          5.2677
LJ         -0.621662        -2.51902       -0.187937
LJ          -3.27714        -4.54804        -4.34759
LJ           6.18994         3.79654         1.56342
LJ           2.85119         3.53427        -6.00002
LJ          -1.21571        -3.39019       -0.618345
LJ           6.31301        -2.08951       -0.364266
LJ         -0.956945         4.64168        -1.97509
LJ          -5.11206          1.2404          -6.151
LJ            1.1881        -4.57263        -3.36947
LJ           5.58838         3.80345        -5.88639
LJ           5.01031        -3.79057        -4.97236
LJ          -1.74273         1.95617        0.936029
LJ          -3.69371        -1.01582        0.609983
LJ           -3.9747        -4.67369         3.64647
LJ          -3.06528          1.2899         5.97351
LJ           3.31736       -0.813385        -2.51291
LJ           1.73504         3.75952        -4.45707
LJ          -2.58008         5.99501      -0.0143457
LJ          -5.32613         -1.0955        -5.21496
LJ           -1.5247        -2.89118       -0.639221
LJ         -0.583814         3.03157         -2.9371
LJ           4.88592         5.97446        0.598696
LJ          -5.04955         2.30205         -3.9395
LJ          -2.81139        -6.42992          4.1662
LJ          -6.18883         4.47868          6.4174
LJ           3.87774         1.63382         2.00673
LJ           6.22272        -2.90748         6.08067
LJ          -5.85279        -6.22976         3.18991
LJ           1.44101      -0.0462474         5.37121
LJ          -2.85533         6.39756        -5.58464
LJ         -0.174903        -2.99273         5.44784
LJ          -4.23925        -1.13612        -3.02024
LJ           2.78359        -3.33318         5.44837
LJ           5.72847        -5.90481        -1.30093
LJ          -4.63534         3.93549        -1.37583
LJ        -0.0696353        -5.02046         1.88848
LJ          -2.64269       -0.879476        -6.19659
LJ          -0.31677        -6.28413        -5.59669
LJ          -2.08165       -0.354343        0.564273
LJ         -0.580793       -0.753645        -3.95782
LJ          -3.27032         3.16464        -5.65053
LJ           3.08868       -0.299784         5.38417
LJ          -6.10198         1.67947         3.79336
LJ          -2.91989         0.49867         1.71734
LJ          -3.69667          1.5428         3.85148
LJ           -3.3586          1.6441         2.50891
LJ           1.86659        -6.44183        0.745221
LJ           2.37085         2.02388        0.666781
LJ           -4.1129         4.14402         1.87388
LJ           3.51829        -0.49323        -6.42753
LJ          -2.06987         6.35762         1.75532
LJ         -0.350472        0.281595         -3.5984
LJ            5.5565        0.330771        -6.44924
LJ          -4.67331       -0.491681         5.12288
LJ           2.95407         4.39764         5.21349
LJ           5.13636         2.40631        -4.00947
LJ           -4.0112        -2.08283        0.742545
LJ           4.87648        -2.77927         3.44031
LJ           2.59911         5.24745         3.52989
LJ           5.23959        -2.16683        0.752878
LJ          -5.44431        -4.15227         3.97172
LJ           5.80281        0.239691         1.93487
LJ            3.1425       -0.309978         -5.9721
LJ           1.15192         6.33964         5.05536
LJ          -5.71659        -1.01562       -0.813571
LJ           5.04265        -3.43641         3.35349
LJ          -5.39224        -4.49533         3.23689
LJ         -0.786579        -4.76306       -0.820488
LJ          -1.01419         -5.2725         1.34369
LJ          0.344366        -3.71607        0.376146
LJ           2.27544         1.99133          5.0966
LJ           4.11823         3.31274          1.8014
LJ          -4.89365         2.57401         4.09776
LJ           5.45934         1.50624        -3.56111
LJ        -0.0536451         6.36036        0.322446
LJ         -0.543399         1.29399         1.09789
LJ          -1.42481         4.03423         5.58727
LJ          -1.95911         1.24644        -6.21168
LJ          0.767074         4.09169         5.93163
