108
#Comment!
LJ          0.911115        0.210416        -2.76209
LJ           4.27688        -1.18159         3.40005
LJ           3.44604       0.0844194        0.703057
LJ           4.74971         2.56868        0.549952
LJ          -3.98732        -5.46588        -5.62755
LJ           3.78145         4.00711        0.549332
LJ          -2.79132       -0.612747         3.99824
LJ           4.37059        -1.97923        -4.26802
LJ          -2.19399          2.9207         1.94169
LJ          -3.71856      -0.0522934        -6.05997
LJ          -2.78857      -0.0797916        -5.14691
LJ          -3.46174         3.24173         0.43199
LJ           1.03085         6.11689       -0.676376
LJ          -4.15657        -1.73161       -0.422212
LJ          -2.00903         1.62686        -5.27016
LJ           -1.2592        -2.51228         2.86258
LJ         -0.623419        -3.69895          6.2219
LJ         -0.841276         4.87685        -5.07348
LJ          -2.53089        -2.96021        -6.16514
LJ          -3.94881          4.4683        -5.94951
LJ          -2.23736         1.88328         1.73847
LJ           3.61512         5.71637         1.10902
LJ           6.23813         1.09752        -5.83554
LJ          0.986903        -4.33748         2.98714
LJ          -2.78402        -2.27376        0.227961
LJ           5.99141         6.28126        -1.50261
LJ          -5.44386         6.04536        -1.07645
LJ          -5.29554       -0.851711        -4.96053
LJ          0.799543         6.00887         1.11161
LJ           1.45064       -0.254401         3.87367
LJ            1.6052         3.93575        -4.05454
LJ            3.4876         6.27575       0.0530279
LJ           5.49927       -0.925753         4.53268
LJ           3.41568        -2.83487        -1.90062
LJ           5.56758         5.26657         1.74527
LJ         -0.532726        -1.34549        -4.92569
LJ           -4.0492         6.34055         5.20964
LJ            -4.275       -0.236073         1.66005
LJ           -1.3334       -0.716887         5.64086
LJ          -5.81896         4.50719       -0.614835
LJ           5.36148        -2.98161        -2.48775
LJ           0.64199         -4.6698         3.90959
LJ          0.406392        -2.81328        -1.46296
LJ          -3.19492       0.0784986         2.32527
LJ            5.1098         4.02947         6.03365
LJ           5.55196        0.634097       -0.311392
LJ          -5.07441        -3.31021        -2.08617
LJ          -3.17179       -0.610097         5.91491
LJ           2.53201        -1.31947         5.22236
LJ           5.18383        0.265873        -1.84048
LJ          -1.75601         -3.6594       0.0627485
LJ          -2.43342        -6.02167        -3.38774
LJ          -3.19447         4.92515        -2.48534
LJ             3.396         4.81985       -0.276683
LJ           2.36999         5.87944        -2.04923
LJ          -3.71174          5.3235         5.63847
LJ           3.88565         3.17816        -3.78183
LJ          -4.37001         4.97574        -2.12772
LJ           2.78883        -4.63649      -0.0498494
LJ           -4.1753        -6.26769       -0.730896
LJ          -1.52583        0.299149         6.00779
LJ          -2.82415         3.92682         2.29988
LJ          -4.89539          6.1393         5.76704
LJ           4.38522        -6.32297         1.12475
LJ           5.91157         6.37524         2.13589
LJ           3.04692        -6.36734        -1.79957
LJ           3.51691        -2.08023       -0.825884
LJ           1.48075         2.87194        -4.11758
LJ           5.53796        -1.94263        -2.62317
LJ           1.77269         3.65369         2.86564
LJ          -1.27519         1.00252         1.22682
LJ          -3.92371        -1.31282          2.4735
LJ           6.43057        -3.43854        -2.22257
LJ          -1.75809        -3.56914         6.44665
LJ          -4.49478        -2.87998        -3.86069
LJ            2.0813        -1.37751       -0.969817
LJ            4.7753         3.22262        -6.33753
LJ           -1.8102        -1.76392          4.5875
LJ          -5.41497         -6.4559        -4.13734
LJ          -2.34125         -4.1166        -5.57609
LJ          0.512207       -0.636179           -4.61
LJ           4.31725        -1.23686        -3.14265
LJ           3.34216       -0.156659        -1.26732
LJ          -2.38359       -0.847569         4.95442
LJ          0.556019         4.78524        -6.41682
LJ          -3.57935        -0.40999       0.0933529
LJ          -1.71607        0.981211         2.35926
LJ          -5.30086         3.56412         6.22978
LJ           4.12749        -1.12419        -1.58765
LJ           1.78974         5.43158        -1.26402
LJ          -5.22088         4.08559         4.32564
LJ           6.08675      -0.0285785         -2.6452
LJ          -4.34405         4.90865        -4.93623
LJ           1.95818         1.60278         1.08286
LJ          -4.13646        -5.86591         -3.9755
LJ           4.73426        -2.44174        -1.65774
LJ          -2.16267         -1.8508         3.19798
LJ         -0.727021         -4.8084         3.69451
LJ          -0.59025        -4.85828        -5.45772
LJ           6.30474         4.94274        -1.17589
LJ          -2.62343        0.352889         1.48877
LJ           2.59112        0.385615       -0.145335
LJ           3.84696         1.01273        -3.61539
LJ          -1.38103        0.217469        0.285245
LJ          -6.02691         2.99614          1.4217
LJ           4.49117         3.46157         1.97427
LJ          -2.22889         -3.7425        -1.81661
LJ          -5.73771         1.40924        -6.46038
