108
#Comment!
LJ           0.33723        0.383361        -3.03813
LJ           6.24015      -0.0160526        -6.18526
LJ           5.72529      -0.0894223        0.200526
LJ           4.69292         4.53272        -3.34515
LJ           5.36688         2.70243        -2.48394
LJ           6.08664         1.76836         1.03694
LJ          -1.48714        -1.29983         1.62752
LJ           2.52897       -0.807695        -3.84455
LJ          -4.21514         5.83919         3.95282
LJ          -2.98506        -3.93629        -4.86332
LJ          0.721939         2.86724        -5.64671
LJ          -4.46823          5.4297       -0.952005
LJ           3.23691        -3.39641       0.0607916
LJ         -0.635438        -5.50129        -4.71206
LJ         -0.670826            4.73        -3.92826
LJ          -3.19778         0.42453         3.46687
LJ          -5.55736        -1.27323         -4.9327
LJ         0.0226883         -2.5162         5.79001
LJ          -2.73748        -1.13969        -3.19046
LJ           6.06677        -1.95158         3.00422
LJ          -1.62798        -3.92064        -5.22246
LJ           2.64626        -5.75832          3.1753
LJ           5.29993         2.61138         3.23336
LJ          -1.51353         5.81916         2.75871
LJ          -5.74231        0.936231          2.5711
LJ          -5.45535        -3.28452         3.23711
LJ           6.24327        -3.58188         2.65673
LJ          -4.02617         1.74414         5.19828
LJ           1.19153         2.22237         2.86175
LJ           0.17269         -2.9862        0.679447
LJ           1.09745         4.97144        -4.25322
LJ           3.04558        -4.91744         3.75114
LJ           5.28486         4.09433         5.05874
LJ          0.721557        -5.45178        -4.06084
LJ           5.62915         1.58808         2.15705
LJ           2.28002       -0.791717      0.00327194
LJ           -2.1388        -5.02908        -6.13143
LJ         -0.324124       -0.692597         1.75324
LJ          -2.49653        -0.94564         2.16104
LJ          -5.90005         3.20359       -0.566163
LJ           4.00413         -1.2379        -1.31936
LJ           4.98313         -3.2133         5.65275
LJ          -3.47937         1.44897        -1.38599
LJ          -2.00693        -1.82355         2.42153
LJ           0.28006         -1.3725         2.59463
LJ          -4.88795         1.55076         3.53074
LJ           5.92964        -1.66128        -2.61856
LJ          -3.43261        -2.44377        -4.22142
LJ           3.57137        -4.22769        -6.03994
LJ           4.44112       -0.140102         2.35277
LJ          -3.44728        -1.25141         2.29476
LJ         -0.803553         2.92249        -4.53737
LJ          -6.44076        -3.20914         1.60172
LJ           3.87076         2.53644        0.246069
LJ        -0.0526923         4.69196        -2.23159
LJ          -1.72992        -4.06364         6.36292
LJ          -4.43336         1.75317        -2.28095
LJ          -5.26204         2.62174        -3.77893
LJ          -5.45261         6.28837         3.69544
LJ           2.76232        -1.85842        0.115198
LJ          -4.21423        -2.92364          5.5158
LJ          -2.24941         5.17913         4.90485
LJ            5.3998         1.17342         -3.7986
LJ          -5.77732         2.13969        0.994412
LJ          -5.64797         4.15592       -0.412345
LJ           3.11631        -5.46701        -5.62642
LJ          -4.82825         2.49397        0.215417
LJ           2.67492          2.5663         4.11619
LJ           3.48965        -2.00994        -1.98264
LJ            4.0549         3.02885         2.22735
LJ          -1.03486        0.518292          2.1129
LJ          0.758574       -0.695907        0.436817
LJ          -2.30159        -3.27697        -1.63279
LJ          -2.56346        -2.45428         1.38214
LJ          -5.96198         5.60151          4.7481
LJ            4.9936         1.65375         1.44011
LJ          0.331787        -4.95322        -0.87753
LJ          -1.02637        -2.62247         3.06933
LJ           3.87949         5.96516        -5.14368
LJ          -2.57312        -3.12595         2.98394
LJ          0.370859       -0.881783          4.4541
LJ           3.67684        -3.18034          -1.942
LJ           2.19322       -0.243316       -0.871759
LJ         -0.820538        -1.43291         2.52322
LJ           5.05523         -5.5939        -4.10765
LJ          -5.72117         1.18188         1.41223
LJ         -0.167089        0.889658         2.69055
LJ          -1.18389        -1.86227        -3.17978
LJ           4.33267        -2.35818        -2.73075
LJ          0.555981        -5.94724         4.98677
LJ           5.07806         5.68845         4.66306
LJ            6.0824       0.0819103        -1.45934
LJ           3.06943          3.7212        -2.88821
LJ           2.97128         2.64899       -0.260295
LJ          -6.05333         4.14162        -1.65426
LJ           4.15315         -2.2845        -1.12665
LJ           -5.2699      -0.0173611         1.70048
LJ          -3.74851         5.34832        -3.29084
LJ         -0.603017        -3.20559       -0.624486
LJ          -5.02836          3.5409        -1.81546
LJ          0.202196         1.37662         1.68519
LJ           2.52235        -1.34332        -1.05203
LJ           2.37463      -0.0999627        -6.43035
LJ         -0.512869         1.43199        0.731106
LJ           4.61251        0.977784         2.52611
LJ           3.51998         2.09396         1.28436
LJ          -5.63631       -0.753891        -2.76326
LJ           4.97082         1.70605         3.83617
