108
#Comment!
LJ          -1.90641         4.05654        -1.91064
LJ            5.2223         5.63623           4.497
LJ          0.884797         -4.0528        -5.99271
LJ          0.268259        -1.74323          3.1733
LJ           5.52764         4.70626        -4.24943
LJ           4.89408        -6.06236         2.73262
LJ         -0.115898         1.86915         1.85321
LJ           -4.9039           -3.56         1.80583
LJ           4.92092         5.54826        -6.39617
LJ           4.17083        -2.81353         4.42898
LJ          -4.56934        -5.45187         1.70588
LJ           3.37515        -2.67445        -3.58215
LJ          -4.04604        -1.99827         2.78191
LJ           2.53939        -2.59901        -1.85246
LJ           5.28671         1.64516       -0.984422
LJ          -0.98522         5.20031         1.68649
LJ           4.62163        -4.28562        -3.09682
LJ           2.83866        -5.94486         0.47718
LJ          -4.28813        -5.74278        0.394571
LJ         -0.158111         5.54723         5.87367
LJ          -6.15032         -5.5075        -5.42043
LJ          -3.83382          3.8923         1.66048
LJ           3.30634        -5.20833         2.11163
LJ          -2.79609          5.7553     -0.00749339
LJ         -0.884967        -3.31972         3.44785
LJ           2.14448        0.883173        0.467005
LJ         -0.787109        -4.12294        -1.06221
LJ          -5.30391         3.46967        0.656773
LJ          -6.33967         4.23066        -2.33096
LJ           2.49918       -0.206809         6.27425
LJ          0.105753        -3.01529        -4.78228
LJ          0.303172        -1.62014         5.23341
LJ          -5.23363        -2.75668        -4.24655
LJ           3.45863         6.22538      -0.0446828
LJ            4.9159         4.15824         -3.0493
LJ          -3.40303         0.16454       -0.442801
LJ          0.457873          5.7534        -6.00061
LJ          -5.22717         1.61281         6.15011
LJ         -0.220314          5.9907       -0.135716
LJ          -4.01823         -1.7851         4.85172
LJ           4.16741       -0.950087         1.38287
LJ          -5.78256        -4.27439        -3.14788
LJ           5.63996         4.45211        -4.73169
LJ          -1.94304        -2.23189       -0.157293
LJ           5.18452         1.25792         1.79122
LJ           4.78744        -1.33888         6.15283
LJ          -4.58146         1.30049        0.760776
LJ          0.620155       -0.934394         2.07672
LJ          -6.22782        -3.76843       -0.324489
LJ          -5.23848        -1.20779         1.13292
LJ          0.476085         4.53888        -5.52515
LJ          -2.98074        -1.44662        -5.48117
LJ           2.90048        -3.72624        0.365137
LJ          -3.50445        0.494998         4.33303
LJ         -0.911772        0.408778         5.79715
LJ          -1.01854         3.15555        0.206736
LJ          -1.11962        -3.79515         3.70763
LJ          -5.30179         4.44732        0.347057
LJ           2.04886        -4.58427          2.7598
LJ           3.82983         5.60682         3.35583
LJ          0.867917         2.83877       -0.862352
LJ           2.97841         1.38495        -3.98456
LJ        -0.0440935       0.0476109          5.5586
LJ          -2.80945        -2.15731        -3.85151
LJ         -0.496537       -0.563087         4.25429
LJ          -3.48829        -2.28747        -3.49368
LJ           3.72277        -3.95469         2.80589
LJ           4.18825        -3.37132         3.86874
LJ          -4.05962          6.1672       -0.401619
LJ           3.08406          1.3754        0.165689
LJ           3.75731        -5.94643        -2.80056
LJ          -5.02442         5.62926         2.58381
LJ          -6.18379        -6.40757         6.46267
LJ          -1.41308         5.36721         1.19888
LJ           1.39912         3.26243         5.37755
LJ          -6.27756         1.93301         5.18006
LJ           1.14839       -0.263017         6.28914
LJ          -4.59497        -3.56565        -3.95774
LJ          -1.49568         2.76395         4.79406
LJ          0.655972        -1.46115       -0.552685
LJ         -0.697417          1.7305         6.35151
LJ          -1.22264        -1.99411        -4.37273
LJ           2.46147        -2.65761        -5.27847
LJ           -4.2018         4.19975         1.16919
LJ          0.978858        -2.08993        -2.98537
LJ           1.43102         4.61305        -2.86317
LJ          -1.20959        -3.55017         4.99367
LJ         -0.192481        -1.21234        -3.78755
LJ           -5.6271        -3.18031        0.553316
LJ          -4.56143         5.36493         2.55744
LJ          -3.24157       -0.876398       -0.912767
LJ           1.19429         -5.0682        -2.56101
LJ          -3.58934          3.9516         -4.5852
LJ           -5.1972         6.22528         1.85828
LJ           5.47676        -4.16797         4.35807
LJ           3.36352         3.75464       -0.205549
LJ           5.93454         5.84511         2.89885
LJ         -0.499839         2.58661          1.5864
LJ           3.09211          3.2942        -1.33942
LJ          -2.06177        -2.63671        -2.85781
LJ          -3.77952         3.82358        -4.41547
LJ          0.901143         1.53128       -0.215441
LJ         -0.149833        -5.88546        -4.27428
LJ          -4.95408         4.82689        -5.81199
LJ           5.88516       -0.748102         1.51055
LJ           4.45465        -3.20412        -6.21378
LJ          -5.79784         2.42173         4.46924
LJ           1.81845         1.97299         4.25996
