108
#Comment!
LJ          -5.91461         -1.9159        -1.58726
LJ         -0.736609        -3.05026         1.85176
LJ          -5.33795        0.683798         2.66639
LJ           6.20081        -5.50817         -3.8781
LJ           5.13473         5.53273         1.92486
LJ          -2.74925        -4.23957        -0.26351
LJ          -6.20504        -5.59181         6.40865
LJ            6.1315         4.82611         4.05815
LJ          -2.14483        -4.87275        -5.03817
LJ          -2.29179          2.5433         3.88994
LJ          -4.41572         -5.7754        -5.89391
LJ           3.77352         4.82689         -2.1156
LJ          -5.28373         1.23985         4.68062
LJ          -3.97821         4.25014        -5.06352
LJ          -0.83649        0.196997         2.30446
LJ           1.57705         4.46148        -4.31785
LJ           5.47428         6.17376         2.71532
LJ          -2.43787         3.47636       -0.160981
LJ          -1.56759        -5.33313          6.4612
LJ          -1.56787         2.45722        -1.84792
LJ          -4.04052        -4.80878        -6.02706
LJ          -6.41208         2.73282         4.09283
LJ         -0.861367        -1.02466         1.41671
LJ           3.99277         2.53489         3.92419
LJ            4.9193         4.34979        -4.07052
LJ            3.2775       -0.099244        0.239737
LJ           3.01517        -2.19311        -5.57705
LJ           1.93551        -5.64725         2.44383
LJ          -2.32475         -2.1371        -2.29582
LJ          -1.41893         2.99029         4.73635
LJ           5.96338        -3.58042         5.20159
LJ            5.0498         5.92064          5.1226
LJ           1.56387        -5.82788         2.25736
LJ          -2.08263         -3.2048         4.08091
LJ          -3.78118        -5.98167       -0.967009
LJ            4.8301        -4.96622        -0.80143
LJ           5.63613         5.98241         4.20176
LJ           -5.9288        -1.87966         5.12601
LJ            6.2137        -6.05073         4.70056
LJ          -1.60206        -5.05802         3.15602
LJ            5.7693           2.126         1.02217
LJ           2.93503         3.69519        -1.67833
LJ           2.46303       -0.588195        -3.66735
LJ           2.36043        -2.57835        0.270697
LJ           3.70935       -0.225794         1.10907
LJ          -1.09004         3.82897        -2.19173
LJ           6.04221         -3.7326        -5.14362
LJ          -5.15196         1.53882         5.54513
LJ          -3.68627         5.95874         2.11714
LJ          -1.63528         4.88251       -0.703731
LJ          0.884959        -3.57574          1.3356
LJ          -3.03759       -0.747355         3.24451
LJ          -1.37921         4.57625         3.11432
LJ           3.65408        -4.71929         5.15233
LJ         -0.619592         -4.3031         5.33976
LJ           -3.7106        -3.78508        -2.30714
LJ          0.520241         1.84447        -2.74256
LJ           5.55672         -5.1664        -5.31454
LJ          -1.48165        -3.03029       -0.700689
LJ          -3.86959         5.96579        -2.35096
LJ          0.825512        -3.61016         0.47642
LJ         -0.671888        -4.88417        -3.23741
LJ          -5.81705         1.42884        -4.38044
LJ        -0.0553892        0.909221        -2.08515
LJ            1.6064         3.18727         6.13986
LJ           2.29284        -4.08555        -1.70276
LJ          -2.37365         1.61247         4.71686
LJ           5.19204        -5.18803        -5.68666
LJ          -4.82477        -3.42466         1.82487
LJ          -2.17175        -6.11463         1.52941
LJ          0.792788        -5.94431        -1.29576
LJ          -4.19203         2.71067         1.19419
LJ            1.6809        -5.94563       -0.526048
LJ           5.32599         5.23689         5.32588
LJ           5.08051        -5.78977        -1.87142
LJ               3.5         1.98569        -2.31695
LJ           3.43586        -2.84193         3.18254
LJ          -5.01374          -1.066         6.41711
LJ           5.04578        -2.99132         5.87148
LJ           1.10603         2.79453        -3.71986
LJ          -5.70871        -5.99509         3.31025
LJ          -2.46968         -2.3376         -3.3584
LJ          -1.73168        -5.59013         5.84934
LJ          -2.87163        -6.20984         1.01778
LJ         -0.411743        -4.05456         6.25208
LJ         -0.444352         4.30436         3.72166
LJ          -2.07498        -3.43027         4.43011
LJ           5.34661        -1.97454         1.18964
LJ           2.62489        -2.09642        -2.88917
LJ          -2.02213        -6.09574         2.11967
LJ           1.97702         6.27587         5.48388
LJ           6.07867        -1.39298         1.71184
LJ          -2.94153         -2.7847         1.45237
LJ           4.96966         3.70969         1.41814
LJ           2.73803         4.10009         -2.7767
LJ           1.27424          4.5557         6.09089
LJ          -3.97272         3.45419       -0.542742
LJ          0.623162        -5.29594        0.883438
LJ           3.00589         5.43194        -6.15566
LJ           3.57415        -1.92335        -3.55367
LJ          -1.41808          3.5636        -5.14106
LJ          -6.09352        0.367025        -4.24132
LJ          -1.08378        -2.53012         4.32087
LJ          -5.81301       -0.898999         5.81433
LJ          -0.65818        0.177122        -3.73967
LJ          -0.50817         3.34815        -3.07314
LJ           2.05807         4.12292        -3.24682
LJ          -3.61108        -1.12616       -0.504953
