108
#Comment!
LJ           1.22118        0.965838        -1.79703
LJ            5.1077       -0.768771         5.20242
LJ           4.65423         0.78353        0.177511
LJ           4.14993         3.01211       -0.127303
LJ          -5.06941         5.77176        -4.06235
LJ           4.59813         2.41989         1.28913
LJ          -2.72417       -0.227523         3.25924
LJ           3.89814        -1.49667        -3.69063
LJ          -3.48234         3.74313         2.79991
LJ          -3.68893        -2.07463        -5.19051
LJ          -1.08177         1.44665        -5.49469
LJ          -3.63728         4.45077         0.29074
LJ           1.96954        -5.16792       -0.424958
LJ          -2.45441        -3.88994        -2.03812
LJ          -1.19716          2.8468        -4.83716
LJ         -0.883501        -1.77439         4.17593
LJ          -2.13353        -1.98469        -5.67902
LJ         -0.315176        -5.48422        -5.91134
LJ          -2.11383        -2.43969        -4.49637
LJ          -4.24627        -4.71407          4.8986
LJ          -2.23123        -0.71043        -1.50458
LJ           3.88304         6.19151         1.93119
LJ           5.82984         1.55009         5.00172
LJ           0.62695        -4.01809         1.65053
LJ          -4.50148       -0.107942        0.118764
LJ          -5.91399        -5.96312        0.669863
LJ          -6.13678        -4.57643        0.658371
LJ          -4.20824        0.036926        -6.35731
LJ          0.486316          3.8199         1.52637
LJ          0.767333       -0.796346         2.81601
LJ           1.48496         4.73997        -4.53444
LJ           3.07736         6.39233        0.950899
LJ           4.73929         1.43095         4.69151
LJ            2.3784        -3.70908        -3.02863
LJ           5.56233         3.46205         2.27211
LJ          0.998905        -1.24836         -1.6946
LJ          -3.28515        -6.23382         5.34093
LJ          -2.45846       -0.537698         1.87021
LJ           -1.5659      -0.0905171         4.42442
LJ            -5.817         4.58877        -1.60898
LJ           5.45048        -2.21194        -2.40211
LJ            2.5709        -4.10489         4.69067
LJ          -1.06681       -0.825526        -1.26328
LJ          -2.60169        -1.43836          2.4463
LJ           2.51377         1.36213         4.14156
LJ           6.45802        0.905542         1.50229
LJ          -5.25981        -3.27196        -2.74933
LJ          -3.75347        -1.87173        -6.34114
LJ           3.49587        -2.35101          5.6651
LJ           4.50211        0.258145        -5.86557
LJ          -2.59078        -2.95474         1.11737
LJ          -2.24954         4.94277        -3.55981
LJ          -4.79144        -5.48276        -1.39779
LJ           3.83661         4.43257        0.231761
LJ           1.19084         5.30651        -2.17632
LJ          -2.65361        -5.60332         6.12957
LJ           5.78056         2.87952         -2.7777
LJ           -4.5223         3.77739        -3.05098
LJ           5.20492        -6.43615         1.69864
LJ           -1.0339        -4.30955       -0.427994
LJ          -3.53847       -0.679634         6.16256
LJ          -2.37232         4.74443         3.03456
LJ          -6.37974          5.0806        -4.74118
LJ           5.47194         4.73386        0.947133
LJ           6.39508         5.95205        0.679945
LJ           3.46673         6.04606        -2.71005
LJ           5.15442        -5.73813        0.712494
LJ           2.01186         2.66282        -6.26676
LJ           4.79939        -1.40795        -2.84173
LJ           3.56751         3.18612         1.81424
LJ          -1.27777         1.05127         1.39439
LJ          -1.51819        -1.13692        0.932521
LJ          -4.43857        -4.17599        -2.68204
LJ          -3.06056        -3.80366         4.09591
LJ          -5.48107         -4.9127         -5.6143
LJ            1.8826        -1.90227        0.716071
LJ           2.71091       -0.728036         3.33981
LJ          -1.80512        -1.93063         3.44009
LJ           6.37971         6.03253        -4.45365
LJ          -3.20686        -3.59479         5.47735
LJ          0.548371       -0.758008         6.18585
LJ           3.98902        -1.89953        -2.10375
LJ           3.34812        0.331158       -0.932698
LJ           -1.9396       -0.986347         3.86386
LJ            2.6637         5.85345        -5.26052
LJ          -4.27045       -0.597846         1.19133
LJ          -1.03394         1.57735         2.67607
LJ          -3.51961         -6.2474        -4.88271
LJ           3.36445        -2.89317        -2.23939
LJ           1.49406         6.13178         1.73988
LJ          -6.07563           4.881         4.37026
LJ           5.51079       -0.706337        -1.85497
LJ           5.18878         4.91277        -3.81045
LJ           1.68371         1.35038       -0.881753
LJ          -5.92197         5.85119        -2.85909
LJ            4.8175        -1.72556        -1.47743
LJ          -4.28724       -0.900576         3.14008
LJ          -1.63537        -6.42521         6.39455
LJ          -1.35325        -3.40318        -3.72677
LJ          -5.90863         3.42982        -0.98803
LJ         -0.435173        0.174348         1.65283
LJ           2.36747       -0.162624       -0.772275
LJ           3.20578        0.512506        -4.81995
LJ         -0.425456         1.40011        0.534286
LJ           6.26124          2.3171         2.09805
LJ           3.58656         3.14741        0.660843
LJ          -4.19022         -2.3748        -2.60373
LJ          -6.09948         1.55324         5.65533
