108
#Comment!
LJ           6.35805        0.608366        -3.06744
LJ            3.7251        -4.35153         3.01456
LJ          -2.45531        -4.99903        -2.96216
LJ          -1.69318          1.6483          5.8859
LJ          -3.64366        -4.78561        -5.72983
LJ            1.0289        -2.79573        -5.15262
LJ          -1.37832        -1.62193         4.45831
LJ           1.17624         6.39625        -2.24065
LJ           4.61606        -0.78272         6.10775
LJ          -2.81262       -0.827836        0.139469
LJ           6.06643         2.94989        -2.90567
LJ          -2.72826         1.89504         5.24109
LJ          -6.22936        -3.09384         4.90129
LJ          -5.91342         2.80142        0.920062
LJ           6.10234        -4.64195        -5.03256
LJ           3.12366        -5.77049       -0.938661
LJ           6.09975         1.36444        -3.09265
LJ          0.387782        -6.06475         5.56449
LJ          0.609946        -4.69982         4.12266
LJ           3.73781          -3.828        0.257601
LJ           5.67794          3.3053        -0.73049
LJ           5.32155        -5.54059        -5.70765
LJ          0.525408         3.04417         5.12053
LJ          -3.79886        -1.53575        -3.33196
LJ          -1.68467        -4.41354         6.33701
LJ           1.66455       -0.560263        -4.10723
LJ         -0.406362        -4.99962         6.05698
LJ          -5.23974        -3.49584        -5.52535
LJ           4.35293       0.0285309         3.09136
LJ          -4.47887        -2.71821         4.58843
LJ           3.81168        -3.04189        -2.05247
LJ           5.73564        -4.30559        -3.57943
LJ           2.11746         4.29892         -1.0698
LJ         -0.377368        -5.38819        -2.27969
LJ           3.62741        -2.64312        -5.80238
LJ           -5.4746        -3.32655        -2.45144
LJ          0.369029        -1.51797        -2.43549
LJ           2.24881        -4.26879         6.40592
LJ          -5.53445         4.29825         4.49793
LJ          -5.29403         4.08228        -2.75559
LJ          -5.16454        0.770516        0.549922
LJ           5.47845        -3.25304       -0.799763
LJ           5.85283         2.12064         6.38631
LJ          -4.75832       0.0241023         -0.8254
LJ           5.51418        -6.28603        -5.92802
LJ          -1.80506         3.35167        -1.96321
LJ           4.16449         2.27248         6.23163
LJ          -5.67019         -3.3068        -6.00932
LJ           5.99413        -3.92272       0.0748171
LJ           2.77388        0.421373        -1.40973
LJ           1.51284        -1.30564        -4.71803
LJ          -5.91838        -3.36397        -5.40143
LJ          0.487483        0.716611        0.209037
LJ           6.42238         3.66715        -3.35573
LJ           2.30182        -3.73673        -1.55345
LJ           3.62404         5.63479         4.66319
LJ           5.36756         1.22076         1.65144
LJ           5.91918         -4.0498       -0.614991
LJ           5.99445         0.72213         1.73087
LJ           2.16705        -2.46007        -3.95486
LJ           0.44695        0.370122       -0.356214
LJ           4.02368        -4.52202        -3.71875
LJ          0.752352         6.07619        -4.89602
LJ           5.67866        0.853247         5.02886
LJ          -4.47504        -1.90992        -4.22248
LJ          -2.64694        -2.94852         2.90517
LJ           2.95602        -5.81387        -1.17857
LJ          -1.27787         5.16906         1.09353
LJ           5.84883        -4.45044         4.69892
LJ           5.56778         3.44507          6.4228
LJ          -4.58881        -2.05997         3.97159
LJ          -3.31431         4.22326         3.75065
LJ          -2.32524        0.300811         1.31828
LJ          -3.44787        -3.04089        -2.14223
LJ          0.708816        -1.00374         4.80059
LJ           5.50932         4.86704        -4.18131
LJ           1.75439         4.92295          4.9768
LJ           5.80895        -5.05373         3.00227
LJ           2.04869         6.31522         1.16233
LJ          -2.38698        -1.06581         5.29567
LJ          -2.03385        -3.17142        -6.14357
LJ          -1.64535        -2.81745        -2.30322
LJ           5.60899          1.8193          6.4484
LJ           6.34124         3.81222        -5.90329
LJ          -4.83123       -0.770243         5.47785
LJ          -1.18523        -4.73234          3.0302
LJ          0.352365         1.88186         5.55393
LJ          -6.30267        -5.41405       0.0671213
LJ         -0.302062         3.39889        -0.11949
LJ          -3.63903        -5.59184         5.57757
LJ          -4.66744        -5.93123        -5.08992
LJ           3.49631        0.606502        -4.25739
LJ         -0.274911         1.57219        -5.99661
LJ          0.939217        -2.65592        -5.50127
LJ          -2.23271         5.79233          -2.312
LJ          -2.11348         5.27874          2.1872
LJ          -2.82595        -2.79123         2.97734
LJ           4.13711        -4.24768        -2.31086
LJ          -1.35947          2.0377         4.54609
LJ            -0.525         1.97439         -4.1538
LJ          -6.39571        -5.96093        -4.38474
LJ           2.63025        -1.54553        -2.94602
LJ          0.253441        -6.35702         5.88444
LJ           4.02775       0.0851518        -6.42925
LJ           1.52391         2.88506        -3.67737
LJ          -2.43895        -2.43993       -0.297333
LJ          -4.55704         -2.1302         3.82861
LJ          -4.73435        -5.25521         1.04625
