108
#Comment!
LJ          -6.42997        -5.99633        -3.77858
LJ          -3.36547      -0.0160236        -3.74787
LJ          -3.18275        -1.88797        -1.16685
LJ          0.736184        -5.82687        0.773469
LJ         -0.102521        -2.48817        -3.29878
LJ           3.19664        -4.41668         5.70246
LJ          -1.70578        -2.52071        0.277034
LJ         -0.379195        -1.21847        -2.87616
LJ           5.40508        -2.26312        -5.12075
LJ          0.904885        -2.37299        -2.76571
LJ           2.83742         -5.6431        -5.59971
LJ            3.2915        -4.38244        -1.56784
LJ           -4.4801       -0.367358       -0.644173
LJ          -1.60565         2.05727        -3.84225
LJ          -2.02237          1.5761        -1.86912
LJ          -3.63527        -5.50046       -0.613077
LJ          0.595383        -1.50861        -3.34559
LJ          0.287832        -1.25146        -4.79037
LJ          -1.28215       -0.582447        -1.85981
LJ           1.40991       -0.545225        -1.60425
LJ           0.82188        -2.74798        -3.94598
LJ           1.92623       -0.825926        -4.57439
LJ           2.95545         1.64702         0.41243
LJ           5.06188       -0.469271        0.775982
LJ          -5.02975        -0.07997        -5.23085
LJ          -4.64557        0.319841        -4.18892
LJ          -3.85752        0.695232        -4.89065
LJ          -1.02406         1.62967        -4.71312
LJ          -5.15969         1.29765         6.27232
LJ          -4.69096         2.72716         6.35437
LJ          -1.79123         2.23779        -2.72852
LJ            1.1593       -0.576087         -3.5306
LJ           2.61598       -0.351972        -3.22943
LJ          0.167847         2.38999         -4.3805
LJ          0.229757          5.2996        -2.96226
LJ           2.94951        0.491095        -2.12753
LJ          -1.10271          6.0042         1.51746
LJ         -0.577579         -2.2211        -1.35327
LJ          -2.39614         6.14459        0.942469
LJ          -2.39068      -0.0439951        0.129026
LJ           1.01398        -2.48813       -0.463292
LJ          -2.34857        -1.38278        -3.91618
LJ          -4.42562        -3.34169        0.949936
LJ        -0.0505501        -2.81321       0.0188604
LJ          0.634839        -2.36108        -1.62807
LJ           6.17039        0.301807         1.00267
LJ           2.54069       -0.682401        -1.74773
LJ          -1.40483        -2.43469         1.23165
LJ          -4.96398        -1.67685        -3.13165
LJ          -3.83653        0.581423         -1.2861
LJ          -5.92166         1.92088         1.28855
LJ           6.32079        0.411686         2.08818
LJ           1.52292        -6.22169        -4.85593
LJ          -2.05476         2.85115       -0.634661
LJ         -0.512945         1.53103        -1.38017
LJ          0.127507        -1.55265         2.80814
LJ          -3.81402        -2.04863         2.50939
LJ           4.16572        0.820239         -2.2056
LJ          -2.38708         -2.1651       -0.656982
LJ          -2.03942       -0.416855        -1.00672
LJ          -4.04744         4.12158         2.32036
LJ          -2.06826          3.6008        -3.45856
LJ           5.21715         5.83061       -0.441728
LJ           -3.6388       0.0981008       0.0325694
LJ          -2.73111         1.15031        0.935211
LJ        -0.0267874           4.019        0.369373
LJ          -1.67417            5.31       -0.758485
LJ           0.84697          1.5089        0.343042
LJ           1.26708       -0.513487        0.303038
LJ         -0.299025         5.48069         1.43914
LJ         0.0513597        0.519026         1.74151
LJ           2.04343         5.81476       -0.506827
LJ          -1.18086        -1.52912        0.784709
LJ          -1.77172       -0.854922         1.76702
LJ          -3.30421           1.102         3.74915
LJ          -3.76591        -4.87791        0.769558
LJ           3.04318        -5.59837         5.37274
LJ          -1.88653        -3.59274        0.804764
LJ           0.72204        -2.61542           4.653
LJ          0.816041        -2.86953        0.661535
LJ          0.698571         6.10925         2.83411
LJ           3.56443        -1.12809        -1.96781
LJ           1.76931        -3.25879         0.18966
LJ           1.30982        -3.47415         1.34968
LJ          -4.10262        -3.57633       -0.552641
LJ          -4.17788         1.01175       -0.317578
LJ         -0.637066         1.12666        0.459125
LJ          -2.08604        -1.12109        0.168639
LJ          -5.01677       -0.318034        0.308579
LJ         -0.653451       -0.981476         3.50106
LJ          -2.26411         -1.8669         2.92954
LJ           3.46616        -1.00278        -6.15878
LJ          0.827787        -1.12514       -0.464544
LJ           3.00274         2.11454        -1.28908
LJ           3.41036         2.74702         1.54086
LJ           2.39769        -0.12488        0.336905
LJ          -4.23782        0.700976        0.783739
LJ          -3.11727         2.04959         0.07212
LJ         -0.838771        -1.22695        -6.44951
LJ           -2.5659         1.98133        -1.00073
LJ          -1.11889        0.489393         1.79756
LJ           1.18592         5.06508        0.624833
LJ          0.174878        0.642184         3.67965
LJ         0.0718647       -0.229432         2.68943
LJ           3.49953        0.752609         1.30395
LJ           2.53096        0.340421         1.70039
LJ           2.03246        0.904084        -5.87152
LJ           3.58612        0.659993         2.95716
