108
#Comment!
LJ           5.62705         3.88518         4.63831
LJ           -2.4635        -3.50381        -3.99916
LJ          -2.85984        -0.13186         4.11866
LJ           2.65608        0.651651        -2.01016
LJ           4.11196         3.87165        -2.69379
LJ          -3.95572        0.529727         3.30859
LJ          -2.20189          4.0696        -5.99691
LJ         -0.670184        0.494765         5.24319
LJ           4.36253         2.16441        0.653912
LJ          -1.38083         4.92488        -1.43468
LJ           5.19844         3.66384         5.27637
LJ           1.46542         6.07666        -3.46321
LJ          -5.66834       -0.954812          6.2744
LJ           5.85493        -1.53818         4.23516
LJ           5.69972         -2.8183         4.20823
LJ          -5.83045        -5.43902        -2.90585
LJ           3.55553         3.33381         1.27002
LJ          -5.44482         2.06777         4.71166
LJ          -5.30068         2.91992        0.328421
LJ           5.25523        -5.49598        -1.23265
LJ          -3.81371        -4.78263         2.00988
LJ           3.33912        -2.52957       0.0934034
LJ          -1.97164         3.51307          5.7053
LJ          -3.34265         -5.6484         1.32089
LJ          -5.55761         3.24641        0.116022
LJ          -1.89311         6.38596         1.15931
LJ           3.73347         4.35029        -3.00456
LJ          -3.42771        -1.95926        -5.89754
LJ           6.06567         5.29251         3.81206
LJ           6.39846         2.85698        -1.08915
LJ          -5.93426         0.77404        0.543664
LJ           6.17727         1.13459         3.33885
LJ          0.988069         1.76967       -0.530062
LJ            5.1004        -4.92094         1.62329
LJ          -5.59804        -2.92615        -5.48712
LJ          -5.33179       -0.466972        -2.82277
LJ          -4.48303         3.68914         1.71572
LJ          -3.65861       -0.648209        -5.28087
LJ           2.47591         2.53189         2.34111
LJ          -5.68705        -4.72205         3.77352
LJ          -2.32067          -5.427         1.46164
LJ            1.0329        -4.95742         -5.9646
LJ          0.190961        -2.90177        -2.33734
LJ          -3.67368         3.37566         2.99978
LJ          -5.45304        -6.15535         6.21404
LJ          -1.91611         4.82538         3.57271
LJ          -2.45189        -4.28234         5.44844
LJ           4.91129        -3.42023         3.79909
LJ          -5.02531         4.71403         4.02811
LJ           4.40504        -5.71433         4.41719
LJ           1.20155        -4.88918         6.07741
LJ          -2.54807         1.71435        -5.55362
LJ           1.10064         6.27758        0.491967
LJ          0.250691         1.23358        -3.96948
LJ          -6.15431        -6.46231         1.46855
LJ          -2.20319         4.96928        0.876393
LJ           4.54386         5.29007        0.753357
LJ           2.70962        -4.85497        -5.62406
LJ          -3.92883        0.359213         4.19289
LJ           3.19031        -2.02066        -1.87124
LJ           6.12061        -4.36402        -0.47704
LJ           6.17485         -4.2728         2.59051
LJ           5.18065        -3.30859        -1.32706
LJ           6.40909        -3.63895         6.33532
LJ         -0.165045        -1.69002         1.02382
LJ          -3.73138        -3.91501        -5.30255
LJ           5.12723        -4.81408        -3.15048
LJ          -1.52401        -1.58248        -1.98252
LJ           3.95277         3.05311       -0.987766
LJ           3.43921        0.173898        -5.03296
LJ          -4.41077         2.58893         3.12582
LJ          -3.11763        -1.07777        0.491458
LJ          -3.03849         1.33057        -4.23679
LJ          -1.42137         1.09878         1.30985
LJ          -2.07055        -4.15686         2.77107
LJ          -3.97743        -5.81093        -1.68577
LJ          -3.62352         2.77428         5.98135
LJ           5.59951        -5.00196        -1.76997
LJ           -5.9835        -5.47955        -4.95272
LJ           2.35284        -5.55198         2.00116
LJ            1.9358        -1.67328        -1.68643
LJ           3.30644        -6.12828          5.5037
LJ           4.71282         5.44368        -2.35983
LJ          -1.41973         1.64532        0.831977
LJ          -2.99006        -5.90688        -2.70528
LJ           1.40028        -1.04531           2.281
LJ          -4.67377         3.69876         -2.8408
LJ          -1.89352        -2.02818        -6.21142
LJ          -2.71506        -1.18313         3.24755
LJ           -2.7082         6.24171        -4.08474
LJ           2.71498         3.35787        -3.89927
LJ           1.26875         5.54473        -3.62218
LJ            1.0097         1.28571        -3.88158
LJ           0.49755        -2.47855         6.12009
LJ          -6.37085         3.57301         4.00193
LJ           1.20791        -5.68856        -0.72673
LJ          -2.86857         4.21837         3.54441
LJ           3.19844        0.637197        -4.90276
LJ          -1.08086        0.885208        -2.39598
LJ          -3.53049         5.20494          3.4211
LJ          -1.12472         5.12701        0.764378
LJ          -2.73021       -0.392988       -0.894802
LJ         -0.428495         6.39371         6.41848
LJ          -4.88196         2.78177        -1.38346
LJ           5.89202        -2.76488         5.35618
LJ          -6.18161         5.14304         6.01515
LJ          -5.14332         2.99422        -3.79748
LJ           -4.9172        -4.81227        -5.66868
