108
#Comment!
LJ          0.217004        0.292565        -3.21527
LJ           6.37469        0.104397        -5.97314
LJ           5.86697       -0.173353        0.186547
LJ           4.44961         4.70892        -3.75991
LJ           5.09276         2.16915        -2.17387
LJ           6.29897          1.6732           1.052
LJ          -1.26942        -1.40797         1.46255
LJ           2.33894       -0.728601        -3.84289
LJ          -4.27691         6.12338         4.16409
LJ           -2.7891        -4.01776        -4.85691
LJ          0.955006         3.07787        -5.64894
LJ          -4.64682         5.52333        -1.11954
LJ           3.38826        -3.07091        0.103102
LJ         -0.375571        -5.64141        -5.07744
LJ         -0.669483         4.89885        -3.76652
LJ          -3.49774        0.728481         3.15088
LJ          -6.01724        -1.31898        -4.85827
LJ         0.0568663        -2.10814         5.61706
LJ          -2.78828        -1.07598        -2.98592
LJ           5.63639        -1.68548         2.72886
LJ          -1.56788        -4.13938        -5.45185
LJ           2.44605        -5.49868         3.31626
LJ           5.18043         2.83399         3.19793
LJ          -1.80457         5.39019         2.91999
LJ          -5.70315        0.842126         2.78308
LJ          -5.49145        -2.87453         3.53853
LJ           6.26663        -3.46194         2.99634
LJ          -4.00326         1.96215         4.98728
LJ           1.40672         2.17384           3.169
LJ          0.319779         -3.6123        0.374411
LJ           1.01162         4.99726        -4.20139
LJ           3.06875         -4.8198         4.17093
LJ            5.2874         3.76188         5.23162
LJ          0.443353        -5.69489        -4.22984
LJ           6.01766         1.07557         2.40109
LJ           2.36765       -0.877147        0.128164
LJ          -2.08386        -5.04705        -6.10737
LJ         -0.245254       -0.830161         1.74244
LJ          -2.46435       -0.968491         1.72461
LJ          -5.74859         2.73634       -0.360009
LJ           3.57675        -1.20564        -1.13027
LJ           5.29559         -3.1068         5.79973
LJ          -3.81907         1.77547        -1.35771
LJ          -1.80723        -1.99328          2.2879
LJ          0.384571        -1.60129         2.18169
LJ          -4.75657         1.74372         3.73573
LJ           5.71726        -1.38217        -2.58755
LJ          -3.32232        -2.50846        -3.87748
LJ           3.66426        -4.37175        -5.87055
LJ           4.50061      -0.0842514          1.6846
LJ           -3.7563       -0.927166         2.25512
LJ         -0.475195         2.73603        -4.70755
LJ           6.24132        -2.84553         2.04283
LJ           4.07329         2.23372        0.227035
LJ         -0.228402         4.60644        -2.27221
LJ          -1.63058        -3.88921         6.37347
LJ          -4.07463         1.50969        -2.39024
LJ          -5.39765         2.45534        -3.80371
LJ          -5.06156         6.43586         3.55631
LJ           3.34078        -1.47016        0.104597
LJ          -4.30773        -3.24669         5.46221
LJ           -2.2649         5.23741         5.14718
LJ           5.23864        0.606063        -3.80337
LJ           -5.5494         2.05892         0.80567
LJ          -5.44806         4.12182       -0.464467
LJ           3.07324        -5.26831        -6.08597
LJ          -4.53717         1.82384       0.0124559
LJ           2.76544         2.54882         3.75342
LJ           3.33522        -2.05714        -1.85269
LJ           3.94791         2.88914         2.27017
LJ          -1.26979        0.587306         2.29813
LJ           1.09578       -0.790973        0.226607
LJ          -2.25665        -3.19792        -1.36658
LJ          -2.36059        -1.93848         1.19895
LJ          -5.85305         5.35367         4.72523
LJ           5.27165         2.29673         1.36552
LJ        0.00603239        -5.47641        -1.51826
LJ          -1.00789        -2.51397         3.04668
LJ           3.50409         6.01718         -5.2091
LJ          -2.36359         -3.3468         2.87608
LJ          0.306231       -0.862295         4.64748
LJ           3.69132         -3.3515         -2.0311
LJ           1.98791       -0.467454       -0.972073
LJ          -0.86459        -1.63733         2.43397
LJ           5.27439        -5.47158        -3.91461
LJ          -6.10685          1.2417         1.89994
LJ          0.127299        0.858277         2.69315
LJ         -0.798209        -1.20992        -3.18754
LJ           4.44915         -2.1391        -2.57393
LJ          0.429189         -5.8251         5.42576
LJ           4.68224         6.19445          4.6051
LJ           6.13976        0.185775        -1.38297
LJ           2.89949         3.46358        -2.76792
LJ           2.99862         2.86722       -0.199763
LJ          -5.88197         4.08142        -1.36199
LJ           4.09298        -2.37193        -1.12028
LJ          -5.44884        0.220182         1.36516
LJ          -4.04379          5.1959        -2.84637
LJ         -0.442801        -3.10526       -0.315471
LJ           -5.0297         3.57424         -1.9227
LJ       -0.00319834         1.34517         1.69603
LJ             2.632        -1.44049       -0.905011
LJ            2.2622        -0.18804         6.27731
LJ         -0.507004         1.43082        0.620356
LJ           4.47644        0.873276         2.39983
LJ           3.68498         2.01053         1.50258
LJ            -5.912        -0.57877        -2.78304
LJ           4.68861         1.73426         3.45076
