108
#Comment!
LJ           3.28148         4.27648        -4.45584
LJ          -4.97738        0.533849        -4.26342
LJ          -5.07687       -0.849292        0.348113
LJ           2.08424         6.25642         4.80063
LJ          0.251042        -1.36542        -3.62054
LJ           5.67069         5.32559         2.54596
LJ         -0.478788         -2.3369         1.16857
LJ          0.581665      -0.0949818        -3.59712
LJ          -5.03059        -3.81552        -6.41591
LJ          0.647886        -3.73567         -4.7922
LJ              2.46         4.99761        -5.52993
LJ           5.68682        -5.82474        -1.57814
LJ          -6.24971        -1.10319       -0.431129
LJ          0.219404         4.99639        -4.47663
LJ         -0.457648         2.88057        -1.70732
LJ          -4.50669         3.71532        0.839873
LJ           2.68505        -1.39894        -4.21735
LJ         0.0356866        -1.61004        -6.40225
LJ          -2.64832        -0.76947        -2.06468
LJ           2.92228      -0.0167909      0.00578027
LJ         -0.283504        -3.19957        -3.93945
LJ           1.93421        -2.80227         5.84552
LJ           4.04092          2.2012         2.50989
LJ          -4.86706          1.3551         3.51654
LJ           5.97173        0.259318         5.96839
LJ           -4.5514          -1.153         5.97532
LJ          -5.77639       -0.867607         6.40513
LJ          -2.35306         3.68349         6.02778
LJ           5.00246         1.98132         4.94999
LJ           4.62166         4.16055         2.35351
LJ         -0.158668         4.34608         -3.5426
LJ           2.03992        -2.77693        -5.59651
LJ           5.30727        0.667389        -6.27447
LJ         -0.862639         4.31861        -5.24243
LJ            3.0418        -3.49235        -5.90546
LJ           3.67672       -0.124466        -1.14266
LJ          -2.29552         5.21476         4.16607
LJ          0.307669        -1.52426        0.132443
LJ           -1.9667         3.08063         1.20643
LJ          -4.13209        0.184191       -0.750215
LJ           1.87441        -1.82811       -0.682694
LJ          -4.60894        -2.27457        -5.40007
LJ          -5.70754         5.43206        0.984845
LJ         -0.826624        -3.09697        0.446997
LJ         -0.228877        -2.34733       -0.199349
LJ          -5.13391         1.69232         2.30281
LJ           3.12649       -0.400722        -2.56379
LJ           -2.4298        -2.39872       -0.450358
LJ           6.02234        -2.93175        -4.32634
LJ          -6.40468      -0.0373782       -0.778855
LJ          -6.29534         1.43449         2.36266
LJ           2.88772         1.83286         4.65171
LJ           3.60969         2.04054         5.79527
LJ          -4.75817         2.36323       -0.274471
LJ          -1.32157         3.34523        -2.65817
LJ          -0.83236        -2.74915         5.63642
LJ          -1.61218       -0.870804        -4.59424
LJ           5.93994         1.34029        -3.38821
LJ          -3.69412        -4.42489         1.31948
LJ          -5.38281        -0.48058       -0.898156
LJ          -4.75483        -6.34956         5.32095
LJ          -1.94279         4.31469        -5.63267
LJ           3.75798        -4.23231        -1.62405
LJ          -4.47138         1.29126       -0.245449
LJ           -3.4415         2.96412        0.530602
LJ          0.862099         5.80378         2.92729
LJ           -3.3099        -3.45358        -1.15131
LJ           2.01468         1.03401         1.14085
LJ           2.89652        -2.17262       -0.394425
LJ           2.08956         4.16682         2.14587
LJ          -1.70589         1.10453          2.0859
LJ           1.52857         -3.0851        0.456686
LJ          -1.47793        -2.20442        0.355168
LJ          -1.51194        -1.31603         1.03998
LJ          -4.52503         3.16595         4.28364
LJ          -4.92178         6.18404        0.526442
LJ          -4.96499        -6.30584         6.27802
LJ          -1.78198        -2.80825         1.06401
LJ           1.47009        -5.41426         6.32232
LJ          0.595175        -3.51515         1.29119
LJ          0.421877         2.76877         3.97921
LJ           3.84145        -1.56899        -2.11419
LJ           1.74648        -2.64314        -1.41686
LJ         0.0513409        -2.96531         2.05911
LJ          -5.67508        -4.37128        -2.12741
LJ          -5.34687        0.755227         1.07753
LJ          0.877273        0.974804         1.18596
LJ          -1.09151       -0.740023        -1.63654
LJ           5.44066       -0.201026       -0.535171
LJ         -0.172235        -2.79312         4.45845
LJ            1.2457         -2.7022         3.48661
LJ           5.65272       -0.185915        -2.48743
LJ           1.36548         1.07799        -1.66242
LJ           3.20539         2.90779        -0.95069
LJ           5.34926         3.53284       -0.139815
LJ           3.37292       -0.999166        0.462627
LJ          -5.42123        0.245388      -0.0982785
LJ          -3.67169         2.58682       -0.877725
LJ         -0.316893        -2.41699        -3.20261
LJ          -4.24182         3.33406        -1.62747
LJ          -1.22044        0.125507          2.5133
LJ           2.34428        -4.41493       -0.291637
LJ          0.996073        -1.01797         4.18469
LJ         -0.222046        0.919308         1.76377
LJ           4.01644        0.303625         1.70877
LJ           3.45041           1.453         1.83308
LJ           3.99443         1.03223        -2.63144
LJ           4.19179         1.08044          2.7237
