108
#Comment!
LJ           1.46459       0.0233385        -3.21476
LJ           4.82813        -1.24248        0.820128
LJ              1.98       -0.971848         1.39989
LJ           5.06125         4.01357         1.95276
LJ          -2.72695        -4.23988         5.07622
LJ           3.19299         5.98735        0.734536
LJ          -2.07847        -1.25162         4.78895
LJ           4.94414        -1.89704        -3.44012
LJ          0.267468         6.36793         1.18328
LJ          -4.31783        0.027634         -5.7137
LJ          -5.13311       -0.871887        -5.70194
LJ          -3.92715         1.18732        -1.17409
LJ          0.731517         3.74164        -1.57969
LJ          -5.04595         1.48117        0.962202
LJ          -2.15718        0.723197        -5.70826
LJ         -0.816166        -4.34661         1.07475
LJ           1.14065        -5.07003         5.93221
LJ          -1.33637         2.08853        -4.30753
LJ          -4.01757        -2.41764         5.09844
LJ          -3.31195        0.547282        -4.52377
LJ           -1.9815          0.4803         2.59463
LJ           4.50799         6.12669         1.59392
LJ          -5.58408        0.732735        -4.08648
LJ              1.26        -5.29374         3.59551
LJ          -2.01462        -4.12614         1.35727
LJ           5.42406          -4.751        -3.52591
LJ          -5.22526         3.83276        -2.60962
LJ          -6.25956        -1.68597        -3.82081
LJ            1.2762        -4.50393        0.365927
LJ           1.88564        -0.23017         5.50123
LJ           2.03521         3.81685        -3.37944
LJ           4.41829        -5.94324       -0.579272
LJ           6.09349         -2.9851         4.05626
LJ           3.45154        -1.94848       -0.644691
LJ           4.89308         5.27525        0.842853
LJ        -0.0339568       -0.820778         6.06834
LJ          -1.15299         5.84724         3.97159
LJ          -4.23271       -0.119186         2.04974
LJ          -3.00863        -1.37343          6.2739
LJ          -6.43262         4.67623       -0.169272
LJ           1.69644        -3.92747        -4.04283
LJ          -2.50742        -6.06955         4.99216
LJ           0.57894        -4.50413        -4.07757
LJ          -5.30211        0.496165         1.83049
LJ           -4.7614        -5.93807         -4.9847
LJ           5.06828         2.46478         1.04935
LJ          -5.62948        -2.88027        0.327223
LJ           -2.2109         1.13733         6.25588
LJ          0.310825       -0.235532         5.06964
LJ           6.17146        -2.41494        -2.80081
LJ         -0.661017        -4.00966       -0.620061
LJ          -1.64757        -4.58048        -2.40419
LJ          -1.32859         1.60426        -1.89607
LJ           3.20535         5.67808        -1.05395
LJ           3.74055        -6.08795        -3.15502
LJ           6.30439         4.49077         5.16268
LJ           1.44382         3.62895        -4.65528
LJ          -3.69259         5.79572        -1.23725
LJ           0.99559        -2.81612        0.442282
LJ           6.00343         4.04104       -0.995683
LJ          0.741533       0.0903588         4.09305
LJ          -3.50638         4.14168         4.35835
LJ          -5.66721         5.27075         5.66404
LJ           3.42579         6.15772         2.12344
LJ           6.25878        -3.84245         3.67518
LJ           3.45534          -4.827        -3.38001
LJ           4.40059        -1.68363         -2.1481
LJ          0.786584         1.94656        -1.76688
LJ           5.28263        -1.20866        -2.55682
LJ        -0.0385723         4.18333         3.95283
LJ          -3.27013       -0.116804         1.43504
LJ          -5.24165       -0.890368         4.82178
LJ          -6.39029        -1.86336       -0.639396
LJ          0.555194        -4.74999        -5.09166
LJ             -3.22       -0.905312        -3.89667
LJ           2.76823         1.52924        -3.75189
LJ          -5.79131        -5.56461         -2.7374
LJ         -0.703541        -1.44381         5.06513
LJ          -3.79903         -6.1606        -4.81642
LJ         -0.970527        -3.48509        -5.42484
LJ         -0.948006        -1.72887        -2.67386
LJ            6.1645       -0.771083        -3.09666
LJ           3.13262         2.14786        -2.90992
LJ          -3.40516       -0.349138           4.475
LJ          -1.69452         3.96385          5.1756
LJ          -3.62249        -0.50409        -0.77095
LJ          -2.61387       -0.872538         2.06667
LJ           5.85536        0.936371         4.31321
LJ           4.08987       -0.367159        -1.43632
LJ         0.0056702         4.09369        -2.59249
LJ          -4.47871         3.32936         4.80038
LJ           5.24798       -0.108493        -2.82128
LJ         -0.456698         4.93516         6.18959
LJ           2.36374         1.89657          2.9533
LJ          -3.09982         -5.8099        -5.69879
LJ           5.04183         -1.1253        -1.39495
LJ          -1.26776       -0.698377          3.9294
LJ         -0.099683        -2.83147        0.722195
LJ         -0.175284         6.44991         5.58884
LJ           3.96381         3.93237       -0.778198
LJ          -3.53737        0.778181         2.21193
LJ           3.96015       0.0660252        0.614573
LJ           4.28372         1.31562        -1.93137
LJ          -3.04274       -0.464805        0.484579
LJ          -5.53697         4.01054        0.392882
LJ           4.25186         2.16707         2.87189
LJ          0.278406        -5.28483        -1.41348
LJ          -6.03942         1.09244         -5.1821
