108
#Comment!
LJ           2.44289        -5.17036        -1.35244
LJ         -0.603674         2.29007         6.16163
LJ           4.14658         4.37243          3.7096
LJ           6.44668         4.44349         4.28481
LJ          -1.78089        -5.20505        -5.53588
LJ           3.66584        0.995238        -4.91771
LJ          -2.83176         4.19804        -1.85762
LJ           -2.9201        -2.58566        0.890462
LJ          0.418855        -1.80246          4.5232
LJ           4.39343         3.15672         5.25016
LJ           1.27406        -3.68986         3.99366
LJ          -4.77807        0.783156        0.335601
LJ            1.6255         5.54018         3.42193
LJ          -4.23614        -5.09456         2.30324
LJ           2.18186         4.72879        -2.91861
LJ          -1.34856         1.31255        -0.36552
LJ          -4.82742        0.814484       -0.645809
LJ           3.00811        -3.83459        -1.43232
LJ         -0.373232        -3.42741        -1.06532
LJ           4.60628        -5.95042        0.450309
LJ            -2.694        -0.56576         4.98368
LJ           5.55019        -4.85201         4.95971
LJ           -4.5127        0.528949         6.32094
LJ           5.51112         3.99535         3.45968
LJ          -3.40697        -4.14399        -1.50345
LJ           5.49959         1.88879         -4.6143
LJ            1.4767         4.73759        -4.22668
LJ          0.881029        -2.24282         -5.1656
LJ          -6.12189         -0.1505         1.35452
LJ           3.42203      -0.0281469         5.94503
LJ          -2.19814         -6.2646        -5.33811
LJ           3.00652         6.13139         3.17601
LJ           6.22757        -3.63663         1.23217
LJ           2.53244         1.18913         5.34943
LJ            1.0755        -4.23166         1.88928
LJ             1.657         4.31532         5.14881
LJ           4.29665       -0.855627        -2.98239
LJ          0.523024         6.28041         1.33049
LJ          -1.57192         2.97256       -0.984497
LJ           2.93543         2.45031         2.59361
LJ          -0.53889         4.71921         4.46933
LJ           1.28865         2.40466         3.37017
LJ            3.6319        -5.60188        -2.88815
LJ           6.23248         -5.5303        -5.98612
LJ          -1.28663        -3.47667         6.24696
LJ         -0.923323        -4.60127         5.72445
LJ          -2.21624        0.634219         1.64494
LJ          -2.15146         2.91587         1.92732
LJ          -5.16014         5.80575         3.59302
LJ          -2.31919        -2.24331         5.37992
LJ          0.612713       -0.134584        0.556421
LJ          -4.16448         4.11986        -6.21103
LJ          -0.83544        -5.03022         5.95962
LJ          -5.65079         5.73776         3.98848
LJ          -5.85607       -0.311992        -4.25118
LJ         -0.353246        -6.43904        -3.80841
LJ           -4.2573        0.704713        -2.36613
LJ           3.99663         1.07893         5.04919
LJ          -3.47148        -2.82475         6.18879
LJ          -2.70669        0.554498       -0.533434
LJ          -1.32722        0.171318        -4.57578
LJ          0.693118        0.148891        -1.63326
LJ            6.2304         3.67068       -0.926993
LJ          -4.37064        -1.74278       -0.428328
LJ           5.00965         1.16999        -2.46934
LJ         -0.665699         -2.3736         -1.6141
LJ          -3.47814        -1.66718         5.91874
LJ          -0.66422       -0.787365         1.21936
LJ         -0.115363         6.24188         3.69171
LJ           5.91546          5.9369         3.85986
LJ          -6.37079        -1.95672         4.49574
LJ           3.07543        -2.34533       -0.102156
LJ            2.1742         3.09983         5.48954
LJ          -4.63759      -0.0922466         -2.5591
LJ          -4.50693        -4.11178       -0.434656
LJ          -5.93802       -0.391894        -1.12669
LJ         -0.175621         2.87298          -2.463
LJ           -4.7308        -5.11609        -4.56166
LJ           6.05215        0.336973         6.13832
LJ          -1.25884        -4.41215         1.26652
LJ           2.28761         4.76847        -2.41555
LJ           5.85806         -2.7485        -1.52681
LJ           3.50121       -0.896012         4.08881
LJ          -3.15685        -1.66492         5.74684
LJ           4.25991        -5.40019        -3.85239
LJ          -3.73461        -5.98091        -4.07136
LJ          -2.32781        -5.49858         1.31064
LJ          -2.32482         5.25926        -2.26122
LJ          -5.56798         3.53206        -5.76762
LJ           2.11021        -2.48051         1.89608
LJ          -3.39985        -3.78936        -5.55134
LJ          -2.69546        0.182966        0.566344
LJ          0.264144         5.77988         3.73904
LJ           3.61531        -1.36661         2.83756
LJ           2.19436        -0.77267         5.09966
LJ          -1.18047        -5.43636       -0.141414
LJ          -1.25005        -6.32868         4.56003
LJ           2.05351         2.37249        -1.08876
LJ           3.24733      -0.0144495         3.34106
LJ           3.02832        -1.87132        0.949133
LJ           -5.3406        -3.83109        -3.80113
LJ           6.29945        -5.61983        -5.42897
LJ          -2.72324         4.32302       -0.730008
LJ            1.5433         3.14621        -5.38081
LJ           2.42081         2.09371        0.891643
LJ           4.37475       -0.531557          -1.245
LJ           4.80374        -5.11032         5.28948
LJ          -6.39432        -5.96543         1.29723
