108
#Comment!
LJ           3.61213          4.5368        -4.37821
LJ          -4.81628        0.493072        -4.19073
LJ          -4.72943        -1.01147        0.287708
LJ           1.97169         6.31785         4.36565
LJ         -0.293298        -1.43284         -3.9528
LJ           5.42447         5.66588         2.84832
LJ         -0.578083         -2.3382         1.21454
LJ          0.453004       -0.171552        -3.52239
LJ          -5.25012        -3.51364        -6.31441
LJ           0.90033        -3.55737        -4.66163
LJ            2.5321         5.25002        -5.60412
LJ           5.46598        -5.67453        -1.59584
LJ          -5.99007        -1.00597       -0.536549
LJ         0.0542459         4.79612        -4.40106
LJ         -0.634732         2.62264        -1.59051
LJ          -4.40075         3.90407        0.602953
LJ           2.34926        -1.40703        -4.14883
LJ           0.10854         -1.5333         -6.2864
LJ          -2.53316       -0.747069        -2.07343
LJ           2.73305       0.0550898       -0.129127
LJ         -0.136449        -3.32321        -3.98477
LJ           1.91917        -2.60642         6.10745
LJ           4.01551         2.18206         2.52316
LJ          -5.21555         1.05024         3.36691
LJ           5.99075       0.0975874         6.19124
LJ           -4.4575        -1.09426         6.24519
LJ          -5.61255         -0.6021        -6.37574
LJ          -2.22493         3.55096         6.35274
LJ           5.28085         1.91142         5.08267
LJ           4.98233         4.01907         2.75252
LJ         -0.315346         4.16044        -3.42262
LJ           1.99699        -2.58553        -5.44383
LJ           5.09629        0.529045         -5.9903
LJ         -0.673212         4.08546        -5.22185
LJ           2.56517        -3.75781        -5.53943
LJ           3.66099      -0.0795326        -1.40546
LJ          -2.19304         5.29675         3.89716
LJ          0.246367        -1.51321       0.0153209
LJ          -1.97733         3.39286         1.19648
LJ          -4.00011      -0.0333491       -0.669044
LJ           1.82569        -1.87118        -0.69353
LJ          -4.36359        -2.21037        -5.22473
LJ          -5.68145         5.77932         1.04667
LJ         -0.890651        -3.13452        0.327348
LJ         -0.446342        -2.35811       -0.216361
LJ          -5.13088          1.6125         2.18547
LJ            2.9833        -0.45146         -2.5302
LJ          -2.49372        -2.36688       -0.207992
LJ           6.21343        -2.81046        -4.20012
LJ           -6.2277       0.0317706       -0.768729
LJ          -6.42369         1.59422         2.25569
LJ           3.22169         1.79739         4.29437
LJ           3.39546         2.49877         6.03298
LJ          -4.40911         2.73866       -0.315934
LJ          -1.22113         3.22684        -2.61065
LJ         -0.776082        -2.77671         5.48417
LJ           -1.4058        -1.07534        -4.75379
LJ           5.76466         1.30558        -3.26881
LJ          -3.57895        -4.25747          1.1415
LJ          -5.02674        -0.43178       -0.888867
LJ          -4.67501         6.32806         5.00815
LJ          -2.04018         4.15821        -5.57648
LJ           3.57268        -4.53613        -1.32675
LJ          -4.47719         1.18125       -0.366106
LJ          -3.47995         2.84886        0.541972
LJ          0.677304         5.63326         2.62761
LJ          -3.14261        -3.87958        -1.12903
LJ           2.04191        0.876466        0.967151
LJ           2.80245        -1.99753       -0.247705
LJ           1.94012         4.27612         2.08903
LJ          -1.59952         1.05075         1.94027
LJ           1.58775        -3.47523        0.456408
LJ           -1.1407        -1.98098        0.314803
LJ          -1.48165         -1.2532         1.00621
LJ          -4.40042         2.96229         4.23365
LJ          -4.69975         6.38261        0.454659
LJ          -5.50216        -6.24694         6.27207
LJ          -1.68984        -3.01048        0.962069
LJ           1.39571        -5.14236          6.1531
LJ          0.822406         -3.4611         1.09399
LJ          0.446999          3.0967         3.89575
LJ           3.82798        -1.36044        -2.11445
LJ           1.78734        -2.78054        -1.32501
LJ          0.211938        -3.08073         2.07694
LJ          -5.52142        -4.29152        -1.97641
LJ          -5.15806        0.838338        0.987754
LJ          0.705793          1.0132         1.05203
LJ          -1.18218       -0.787354        -1.49955
LJ           5.64655       -0.142697       -0.504905
LJ         -0.234955        -2.46972         4.35536
LJ          0.944914        -2.38872         3.43478
LJ           5.47535       -0.331188        -2.86379
LJ           1.24359        0.878781        -1.57447
LJ           3.21891         2.62562        -1.22587
LJ           5.15842         3.46206       0.0160123
LJ           3.20308       -0.787206        0.565317
LJ          -5.40545        0.226007      -0.0514269
LJ           -3.5368         2.39392       -0.799034
LJ         -0.231492        -2.33187         -3.4821
LJ           -4.1834         3.27507        -1.41779
LJ          -1.27235        0.150535         2.58163
LJ           2.39352        -4.76747       -0.285493
LJ          0.880364        -1.10109         4.01185
LJ         -0.143541        0.818042         1.93987
LJ           3.93068        0.375783         1.69814
LJ           3.28668         1.25521          1.7884
LJ           3.79668         1.15579        -2.60072
LJ           4.15396        0.961254          2.6794
