108
#Comment!
LJ          -6.41145        -1.84075        0.517952
LJ           4.75059        -5.00159        0.553521
LJ          -4.32804        -3.96222        0.320962
LJ          -1.35518         2.26817        -5.41766
LJ           4.91529        -3.51483       -0.892238
LJ          -4.76557        0.442191        -4.77875
LJ          -4.14192        -6.07031         4.36724
LJ          0.846361        0.585057         4.42501
LJ          -3.56944        -1.22868        -5.44125
LJ          -2.45261         6.13368         3.30257
LJ         -0.268273         5.76637         3.99908
LJ           -5.2486        -5.09556        -5.83919
LJ          -2.03075        -0.13306         3.57356
LJ           0.82364        -2.09206         5.72998
LJ           1.03484        -3.50549         4.57481
LJ          -3.44889         3.06987        -3.36564
LJ           -5.7073        -1.35768         1.13886
LJ           0.10503        -2.72953         5.63691
LJ           4.44359        -6.34632         3.66061
LJ          -5.39078        -6.32832         1.97693
LJ          -3.09822        -4.60134         1.88874
LJ           6.02975         1.88231         -4.0835
LJ            4.1687        -4.09693         6.28601
LJ          0.567612         -0.5751       -0.614634
LJ          -5.35132        -0.13581        0.462784
LJ          -3.73352         4.74769         -2.4779
LJ          -3.10539         3.62237        -2.52746
LJ         -0.823926        -3.11842         -5.8555
LJ           2.90552         5.74969         1.70182
LJ          -3.11013          0.1473       0.0197567
LJ           5.85626      -0.0947588         5.50582
LJ          -4.41013        -2.83099         1.85825
LJ          -5.77083         6.18848        -2.07316
LJ          0.978534        -1.76184        0.910557
LJ           2.24545        -1.76665         4.17655
LJ          -4.13783         -4.0526         3.14287
LJ           1.53937         4.79219        -5.10172
LJ          -1.19291        -1.88849         3.62184
LJ          0.371823       -0.373241        -3.88877
LJ            3.1376          2.0124         5.51144
LJ           -6.2342         3.18159        -2.25366
LJ           6.19382        -4.83655        -4.72744
LJ           5.52455         3.32053        -1.45077
LJ          -5.93373        -5.31574       -0.351617
LJ         -0.634578        -1.53784        -3.37219
LJ          -3.16953         1.69504          3.0206
LJ           -5.6577         6.04895        -6.11863
LJ          -3.13616        -3.60595        0.714218
LJ          0.801007        -1.97089         2.42873
LJ           4.41093       -0.173956        -1.18141
LJ          0.992148         4.99909        0.687475
LJ           3.36792         3.49208         5.89993
LJ           2.52066        -2.19086         2.27476
LJ          -5.75964         5.93672       0.0442474
LJ           -5.5526        -1.62692         3.20139
LJ           4.78096       -0.432117         2.77967
LJ           4.50501       -0.632184         3.40608
LJ             5.634         5.50358         0.27008
LJ        -0.0198954        -4.38099         5.81643
LJ         -0.831668        -1.14444          5.8994
LJ          -1.06254         2.98196        -5.51622
LJ          -1.85757         2.50596        -1.19817
LJ          -3.42602         2.86524         4.74454
LJ           -5.6625        -4.66584        -2.89855
LJ          -4.78183         3.91602          5.6259
LJ           1.49181        -1.88339         -3.6118
LJ           6.04222        0.544438        -1.43878
LJ          -2.56221         3.49879        0.319027
LJ          -1.14135        -5.28077         2.67418
LJ          -3.04788         2.32599        -5.04353
LJ         -0.988051        -3.81474         5.67804
LJ           1.57151         3.55517        -3.67287
LJ          -1.25807        -2.53497         1.65167
LJ           1.52373         4.79372         5.02944
LJ          -2.83163         1.86904         3.29572
LJ           3.72406        -1.05142         1.77711
LJ          -5.15095         6.26139         5.24983
LJ          -3.76856        -4.03396           2.224
LJ           1.00531       -0.188353         2.47813
LJ          -1.93591         1.75406          6.3001
LJ           1.43304       0.0882458       -0.539316
LJ           1.70112         -4.0699        -2.46824
LJ           2.43448         1.06523        -1.25304
LJ           1.96879        -5.98492         6.25409
LJ           6.46268       -0.260615          1.0161
LJ           4.36442       -0.462698       -0.197718
LJ          -2.92131        -4.38599          3.5285
LJ         -0.599941         3.26001        -5.74867
LJ           5.61026         4.11087         1.93579
LJ           -3.3887        -2.02508         1.76139
LJ          -1.77207        -3.12184        -6.19335
LJ           4.07562        0.163878         1.10742
LJ          -3.40249        -4.55403         0.10863
LJ         -0.789374        -1.66292         5.62272
LJ          -1.50824        -3.72826        0.573105
LJ           4.38974         4.31082         4.62929
LJ          -3.59065         4.79399        -6.41125
LJ          -5.61155        -4.12046         3.45511
LJ           5.96986         2.85205        -0.92416
LJ           3.92689       -0.529725         2.22703
LJ             2.998         5.47218         -5.7746
LJ           5.54893      -0.0677374        -1.90574
LJ           5.50742         3.38093       -0.403422
LJ          0.996445         2.74409         1.75287
LJ          -2.72907        0.472453        -5.57362
LJ          -4.80228       -0.106575        -3.62102
LJ           2.81855        -4.52618        -5.77211
LJ           2.55309         2.67938        -5.78112
