108
#Comment!
LJ          -4.19662        -4.12731        -3.31808
LJ          -2.26678        -1.51638         -3.3214
LJ          -3.10128        -1.93725        -2.48592
LJ         -0.679086        -4.61995        -1.02637
LJ         -0.285356        -3.33967         -3.0475
LJ           1.40205        -2.82013         -4.7052
LJ          -1.52403        -1.95067        -1.16861
LJ         -0.251106         -2.0661        -2.34965
LJ           3.28154        -2.91581        -3.97868
LJ          0.949541        -2.45493        -2.62112
LJ           1.19924        -4.22994        -3.70062
LJ           1.57357        -3.41261         -1.4214
LJ           -3.7764        -1.06179        -1.37997
LJ          -1.94891        0.126138        -3.56165
LJ          -2.42785         1.24178         -1.6507
LJ           -2.9245        -2.81002        -1.16376
LJ          0.277307       -0.469872        -2.61835
LJ         -0.320627        -1.12995        -3.68923
LJ          -0.63589       -0.310078        -1.64766
LJ          0.993504         -1.0053        -1.92816
LJ           1.36183        -1.27549        -2.98599
LJ           1.22715        0.223143        -2.73508
LJ           2.02103       0.0733639        -1.11588
LJ           3.76656       -0.677676        -1.20323
LJ           -3.8713        0.734527        -4.22908
LJ          -3.96237         1.77935        -3.25419
LJ          -3.26195         1.05484        -2.88841
LJ          -1.25485        0.709242        -2.83685
LJ           -2.8247         1.36314        -4.89007
LJ          -1.77502         1.86631        -4.07801
LJ          -2.16079         2.10321        -3.05601
LJ         -0.186079         1.01652        -2.71342
LJ          0.478788        0.147803        -1.55955
LJ          0.672202         1.63036        -3.39585
LJ         -0.178115         2.42198        -2.01446
LJ           2.26254         1.48362        -2.20782
LJ          -2.14056        -4.53069        0.436582
LJ          -1.48921        -3.09216        -1.50923
LJ          -3.43612        -4.56232        0.118189
LJ          -1.55553        -1.34461        0.108828
LJ           0.47002         -3.1255        -1.01122
LJ         -0.776967        -1.11405        -2.42815
LJ          -2.62714        -1.39307       -0.731917
LJ          0.037939        -2.34456     -0.00627636
LJ          0.502586        -1.72088        -1.18501
LJ           4.25672       -0.931747       0.0595581
LJ           1.81632        -1.81668       -0.771153
LJ          0.366104         -3.0928        0.805954
LJ          -3.68926       -0.302647        -2.38994
LJ          -1.91095        0.489098        -1.11037
LJ          -5.05106        0.928034        0.422635
LJ          -4.16252       -0.880092       -0.274183
LJ          0.702351        -2.81517        -3.52262
LJ          -1.09622         1.26055        -1.02186
LJ         -0.736377       -0.168777        0.163712
LJ          0.134356        -1.14606        0.601729
LJ           4.13112        -1.92684       -0.426556
LJ           2.76766         0.76585        -1.55135
LJ         -0.703445         -1.1697       -0.739251
LJ          0.505674        -1.03382       -0.536185
LJ          -3.44843         2.24599        0.182875
LJ          -1.59644          2.0126        -1.54034
LJ          -5.24106          3.6571       -0.374362
LJ          -2.77772       -0.362291       -0.273612
LJ          -1.68424        0.406527       0.0947341
LJ         0.0402099         2.90294       -0.944956
LJ          -1.64505         2.11587       -0.553886
LJ          0.340637         2.09124       0.0121057
LJ          0.811455        0.654794        -0.61466
LJ          0.813843         3.98085      -0.0342095
LJ          0.478077         1.15699         1.11553
LJ           1.62992          2.8248       -0.296767
LJ          -2.14559        -2.25488        0.728287
LJ          -2.12281        -1.81386         1.79665
LJ          -2.63598       -0.530281         3.17322
LJ          -2.62379        -4.07555         1.21046
LJ          0.822301        -4.32479         2.83554
LJ          -1.32009        -2.81644        0.860627
LJ         0.0358619       -0.421677         3.28855
LJ          0.777757        -2.82796         1.92601
LJ          0.838821        -4.39711         1.46655
LJ           2.64925        -2.03124      -0.0462524
LJ           1.73261        -2.67937         1.10076
LJ           1.65736         -3.8956          1.7894
LJ          -3.01335        -1.71774        0.414487
LJ          -3.80313        0.364398        0.220173
LJ           -1.8755         1.12039         1.42531
LJ          -2.53374        -0.73951         1.17822
LJ          -2.56874        0.333997         0.67224
LJ         -0.639094       -0.735926         1.97056
LJ          -1.74121       -0.773631         2.56186
LJ            1.5764        -1.17059         4.35143
LJ           0.88052         -1.9672        0.344864
LJ            2.6754         1.33142       -0.511681
LJ           2.08712         1.61161         2.36025
LJ           1.75687       -0.374098        0.373021
LJ          -2.76569         1.38159         0.23164
LJ          -2.18978         2.34746        0.857391
LJ          -1.61999        0.342042         3.57439
LJ          -1.55713         1.41271         0.51346
LJ         -0.306419        0.243769         0.93983
LJ          0.441207         2.91594        0.739962
LJ          -0.44846         1.78175         3.02498
LJ           -0.6829        0.263205         3.22103
LJ           2.09298         1.51613        0.939916
LJ           2.91123         0.81647         1.45426
LJ           0.66515        0.384663         3.48228
LJ           3.13286        0.746975         3.03415
