108
#Comment!
LJ          0.226886        -2.36971         4.44951
LJ          -1.04311         6.01034         1.00673
LJ           -5.6373         2.08955         3.37445
LJ           -3.8462        -0.15517         4.68675
LJ          -4.13528         1.47203         3.14417
LJ           1.63067          3.8579        0.334554
LJ           -4.4806        -3.50391         -1.0406
LJ           4.29597         5.59778        -4.94815
LJ          -1.11646         4.28025         1.03673
LJ           3.14793        -5.26466         6.35963
LJ          -6.38707        -3.83299        -5.11325
LJ           1.68363         2.34276         5.43136
LJ          0.909982        0.306116         4.73381
LJ           5.04421        -4.81973         4.42235
LJ          -4.83045        -2.34012         4.58843
LJ           1.53635        -5.10452         5.09107
LJ          -3.79849        -6.36493         -4.7051
LJ           1.98334         1.12299        -1.90988
LJ          -1.33278        0.791461        -3.44222
LJ         0.0323824        -3.95001         4.60777
LJ         -0.937386        -6.18019          1.9257
LJ          -6.19867         0.77186          6.1714
LJ           1.54424        -4.58694         5.61005
LJ          -3.67678        -3.77527        0.267498
LJ          -0.18053        -4.73003         -3.1481
LJ          -4.16214        -1.96164         3.44905
LJ           2.62779          1.2161       -0.501722
LJ           5.97317        -3.16182         5.15029
LJ          -6.42639       -0.647322          5.0779
LJ           5.31109       -0.380835         2.28415
LJ          -1.52336        -1.25419         3.03099
LJ          -1.62209         5.17682         4.99501
LJ           3.31441         1.79173          5.6161
LJ           4.00692        0.675599        -3.69649
LJ           -3.4284         4.04511         5.80858
LJ           5.37846         2.20526         5.45491
LJ           3.81294         3.49961        -6.30943
LJ            5.8645        -4.01751         2.62899
LJ          -5.69126        -2.29673        -2.54653
LJ           3.27069         2.72703         2.09393
LJ           1.83789        -1.34512        -5.35734
LJ           3.48563        -3.51248         2.63742
LJ           -2.7038         5.11282         1.57721
LJ           4.73141        -1.63499        -2.24714
LJ          -4.08936        -4.94317        -5.49923
LJ          0.507706         6.02585       -0.875047
LJ          -2.12738         2.43503        -2.69439
LJ          -6.33592         4.06825        -3.76041
LJ            1.4976        -3.07917         2.08579
LJ          0.576278        -1.90383         3.19959
LJ           5.66556        -2.29317        -3.81425
LJ          -3.97232        -1.52222         -2.8212
LJ           5.44056         3.81627         1.52793
LJ          -1.79013         6.29901         5.38921
LJ          -4.82247        -4.26314         3.80262
LJ         -0.149543        -2.27998      -0.0249781
LJ           4.97116        -6.07794        0.640537
LJ           4.49643        0.280201         0.45319
LJ            3.0995        -3.86474        -1.39033
LJ          -2.29868       -0.133272        -5.58816
LJ            1.9899          1.1517         3.10539
LJ           3.47084         1.20746        -3.69239
LJ          -3.28045         2.30836         1.53716
LJ          -3.88578          1.1246         4.15214
LJ           3.35969        -5.09359        -2.53014
LJ          -5.77105        -1.42188        -2.17838
LJ           1.24014        -2.13404         4.76724
LJ         -0.208048       -0.385428        -4.11205
LJ         -0.388145        -5.11338        -3.21833
LJ          -3.56656         4.37179         3.58359
LJ          -5.25723       -0.485781          4.3363
LJ         -0.651026         5.77973        -6.18224
LJ          -5.67547        -2.52829        -5.67711
LJ          -5.34126         5.30506         4.81487
LJ           3.79345         3.82904         2.99394
LJ          -3.64844        -1.83247      -0.0958656
LJ          -3.08275        -3.63306        0.255654
LJ          -3.85217         -3.1308         2.00142
LJ           5.22823         4.90215         3.95085
LJ           2.28979        -5.77502         1.39996
LJ          -6.26328          2.7728          4.7338
LJ           4.05185        0.309246       -0.936201
LJ         -0.238934        -5.15344        -2.69944
LJ          -4.03605         2.84297        -2.35887
LJ          0.518424         1.92863        -1.84135
LJ          -2.32758         4.21544         0.54382
LJ           6.21109        -5.86664        -1.97617
LJ          -1.95732        -6.04711           5.109
LJ          -3.98034      -0.0688752        -1.17786
LJ           1.28818         4.86176         4.97348
LJ         -0.716113        -4.27076         4.25325
LJ           -3.2936         -4.8861        -4.47992
LJ          -4.98486        -1.93555        -6.02854
LJ          -5.04994         6.21138         4.55266
LJ          -5.24473         5.26657        -5.04495
LJ          -2.29045         4.56757        -2.83083
LJ           4.23817         4.27689        -2.40898
LJ          -4.71694       -0.662958         4.79032
LJ           5.87444        0.977141         3.39174
LJ          0.752152         2.75683         -1.1184
LJ           1.53035        0.467837         3.16057
LJ           6.12412         4.87284         5.80165
LJ          0.324402         6.28261        -1.41896
LJ           2.39655         1.90481         2.41406
LJ          -4.80663         5.46506        0.966978
LJ           2.09581         1.71618        -6.26907
LJ          -3.41954        -1.69924         3.39284
LJ           2.82745         2.69926         3.22265
