108
#Comment!
LJ           1.09568        0.910738        -1.94287
LJ           5.37636       -0.700051         5.46088
LJ           4.85472        0.613713        0.186823
LJ           4.36256         3.46645       -0.555647
LJ          -5.40187         5.35195        -3.93994
LJ           4.61932         2.37662         1.37121
LJ          -2.56766       -0.374048         2.93849
LJ           3.77933        -1.36362        -3.63774
LJ          -3.66463          4.0777         2.97847
LJ          -3.64064        -2.60166        -5.00885
LJ         -0.764313         1.66004        -5.53912
LJ          -3.74747         4.62931       0.0764699
LJ           2.19937        -4.87865       -0.342492
LJ          -2.11099        -4.30915        -2.45142
LJ          -1.00954         3.21077        -4.71807
LJ          -1.19952        -1.50591         4.38906
LJ          -2.60202        -1.66903        -5.37115
LJ         -0.241586        -4.96671        -6.12144
LJ          -2.23536        -2.07345        -4.43566
LJ          -4.10185         -3.9839         4.42082
LJ          -2.08106        -1.27408        -2.14782
LJ           3.65844         6.23403         2.15164
LJ           5.82896         1.60378         4.58728
LJ          0.250115         -4.5461          1.8382
LJ          -4.87163        0.341663        0.435742
LJ          -5.73907        -5.61226         1.14744
LJ          -6.31141        -4.27193         1.01051
LJ          -4.19945        0.387487         6.35126
LJ          0.438441         3.37351         1.60233
LJ          0.614178       -0.905388         2.59068
LJ           1.42221         4.77845         -4.4939
LJ           3.07314        -6.12932         1.43028
LJ           4.71889         2.09618         4.77289
LJ           2.07632        -4.02133        -3.21596
LJ           5.64132         3.08348         2.32606
LJ           1.33119        -1.19057        -1.00184
LJ          -3.09788        -6.03849         5.59071
LJ           -1.9549       -0.836955         1.86566
LJ          -1.71438        0.012157          4.1205
LJ          -6.01065         4.39823        -1.77752
LJ           5.35254        -1.89333        -2.32953
LJ           2.97176        -3.97703         4.84596
LJ          -1.44956       -0.393837        -1.24848
LJ          -2.56079        -1.60037         2.64364
LJ           1.97649        0.736228         3.74647
LJ          -6.31626         1.04935         1.90211
LJ          -5.62445        -3.04916        -2.74112
LJ          -3.83925        -2.10643         -6.1215
LJ           3.52363         -2.6493         5.88563
LJ           4.40988        0.214546         6.26202
LJ          -2.76369        -2.77073         1.33871
LJ          -2.11292         4.57728        -3.67308
LJ          -5.06353        -5.09072       -0.925664
LJ           4.00156         4.03928         0.24234
LJ          0.974098         5.20192        -2.17398
LJ          -2.51093        -5.30575         6.13093
LJ           6.18249         2.82861         -2.5638
LJ          -4.59512         3.56135        -3.22007
LJ           5.53727         6.42454         2.12698
LJ         -0.393509        -3.88751       -0.370726
LJ          -3.63094        -1.02181         5.93694
LJ          -2.28839         4.84287         3.37734
LJ           6.37271         4.54821        -4.23206
LJ           5.81264         4.24857        0.936312
LJ          -6.24442         5.67301        0.322506
LJ           3.51438         5.95283        -3.12735
LJ           5.54255         6.40178        0.875535
LJ           2.12367         2.64824         6.22182
LJ           4.42218        -1.54502        -2.73907
LJ           3.98062         3.05362         1.73909
LJ          -1.05651         0.86377         1.40111
LJ          -1.03002        -1.04291         0.94824
LJ          -3.89063        -3.99159        -2.52878
LJ          -3.36675        -3.82184         3.82543
LJ          -5.65061        -5.37195        -6.13912
LJ            2.1437        -1.41142        0.600944
LJ           2.31991         -1.5032         2.66907
LJ          -1.64816        -1.99736         3.03055
LJ           5.96378          6.0597        -4.60893
LJ          -3.36509         -3.5111          4.8984
LJ          0.534897       -0.796129         5.75184
LJ           3.92835        -2.05999         -1.9224
LJ           3.28724        0.390067       -0.952311
LJ          -1.87405       -0.923896         3.59675
LJ           3.13549         6.17772        -5.15776
LJ          -4.34882       -0.520129         1.17079
LJ          -0.91612         1.55092         2.56695
LJ          -3.20408        -5.52973        -4.48316
LJ           3.47039        -3.06976        -2.53019
LJ           1.32147         6.26752         2.31358
LJ          -6.25288         5.04707         4.38021
LJ           5.51248         -0.7007        -1.68477
LJ           4.57956         4.99863        -3.63456
LJ           1.81703         1.57619       -0.886154
LJ          -6.21537         5.19167        -2.71792
LJ           4.80212        -1.63198        -1.41799
LJ          -4.51017       -0.667166         3.02442
LJ          -1.97692         6.26155        -5.94708
LJ          -1.30824        -3.34357        -3.23154
LJ          -5.55114           3.283        -1.03521
LJ         -0.157423        0.414205         1.72439
LJ            2.4042       -0.388675       -0.967002
LJ           3.05381        0.413067        -5.09538
LJ          -0.41687         1.56565        0.790326
LJ            6.0674         2.14991         2.19799
LJ           3.31825           2.786        0.649761
LJ          -4.37871        -2.03049        -2.62325
LJ          -6.38216         1.56855         5.40287
