108
#Comment!
LJ          0.569727         3.11393         6.40799
LJ         -0.325519          5.4517         3.72364
LJ           1.80307       -0.984753         2.34269
LJ          -2.35678         2.95426        -5.20448
LJ          -3.93784        -2.77436         2.85224
LJ           5.08343        -4.15911         3.14269
LJ           1.70191      -0.0191167      -0.0667821
LJ            3.2449           5.633        -3.79522
LJ          -6.15811         5.30878        -2.56087
LJ           5.36823         5.48775         3.87468
LJ           3.54812         3.85822        0.669931
LJ         -0.409464        -6.11575        -2.91962
LJ         -0.689821         2.60647         3.92917
LJ          0.771806         2.04427        -5.58535
LJ          -2.92433        -3.47167        -3.39715
LJ           4.79048         5.02323        -2.11319
LJ          -4.44947         3.33234         -6.3288
LJ           5.53348        -3.59865         1.96594
LJ          -3.88868        -1.86793         5.51609
LJ          -4.40696          1.9059         1.45371
LJ          0.637076        -6.31777         2.85458
LJ            3.8549       -0.903222        -1.09104
LJ          -5.59024        -1.33373          -5.647
LJ          -4.29629          6.1479         4.85646
LJ          -4.39642        -3.21339        -2.20067
LJ             2.082        0.928598        -3.57116
LJ           5.49903          3.3863         2.40027
LJ          -2.72197        -1.55247         2.80528
LJ          0.176982         5.54904        -6.04101
LJ           4.97496        -5.68922         2.81585
LJ          -4.80705         2.48173        -5.69218
LJ           1.78586        -1.10619         4.16626
LJ           6.29825        -4.84858         6.31745
LJ            4.2634         1.38297         0.96287
LJ          -5.89548        -2.28175         3.25134
LJ          -4.35173         1.25017         -3.9631
LJ          -3.04924          3.7327        -5.80498
LJ            -3.807         2.91248         1.49447
LJ           1.07591       -0.746186         1.37342
LJ          -2.04118        -4.31813         3.03186
LJ           2.28817         4.65911        0.193862
LJ          -5.23987         5.27427        -2.03887
LJ          -5.80574        0.268516        -2.67119
LJ            2.8854        -3.34942         1.55214
LJ          0.978391        0.725006        -3.81482
LJ          -1.77988         1.66959        0.940243
LJ           2.82156         5.87346        -5.11331
LJ           2.41969         2.79552         2.72824
LJ          -3.36776       -0.320362        -3.74977
LJ            4.5877       -0.559426         2.79823
LJ           4.61215        -1.25728        -4.13645
LJ          -2.60317         -4.1141         -2.3195
LJ          -3.00724         3.31455       -0.108916
LJ          -3.38285        -4.98178         -1.4527
LJ           4.66951         1.29612        -4.37186
LJ          -4.81023         3.99203         2.88964
LJ          -3.36434        -1.04304        -2.67983
LJ          -1.89702         6.11012         1.75106
LJ           2.65936         2.04567         -2.6376
LJ           4.74331       -0.849569         3.36034
LJ           -2.1098         4.66099       -0.471255
LJ          -4.12675         3.97749         6.10718
LJ          0.995212         2.43152        -1.80843
LJ           6.35664         6.36405         1.46109
LJ           3.49991         3.51695         1.75739
LJ           3.13404          1.4675        -6.17658
LJ           5.90188       -0.209595          3.5438
LJ           5.28674         1.16336         1.96909
LJ          -1.03602        -3.42521         1.55855
LJ         -0.311699        0.447903        0.592352
LJ          -5.50796         1.76491         1.45368
LJ           3.34512        -3.12162          0.8476
LJ          -1.32358         2.28812        -3.88216
LJ          -1.90647        -6.15049         1.20367
LJ          -5.59416         1.53869         3.91837
LJ           1.39105         -1.4807        -6.08237
LJ           5.45189          2.1506         2.69499
LJ         -0.899002         2.71203        -1.93779
LJ           2.72444        -1.35069        -2.88096
LJ           3.24912         1.00156         3.95255
LJ         -0.876251        -3.93705         1.62901
LJ           4.56827        -4.87748        0.927183
LJ          -3.91478        -3.52494         1.42394
LJ          -0.84489        0.704951        0.638207
LJ            4.8747        -1.15408        -2.46584
LJ           1.04532        0.370517        -1.05091
LJ           2.98789         1.96244         3.97638
LJ          0.162998         1.33241         1.02066
LJ          -1.25179        -1.04036         4.17398
LJ           1.62246         5.45068        -4.95897
LJ         -0.253152        0.106512         5.70582
LJ          -1.39094         3.11501         4.93164
LJ           4.58433          2.7767         5.84582
LJ         0.0168252        -3.40729         2.79175
LJ          -0.72076        -3.13955        -2.14524
LJ           6.34898        0.898032        -1.30942
LJ          -2.54383        -5.16571        -4.17801
LJ          -3.89295         3.37214         -1.4453
LJ          -4.76717         2.41638         -1.6458
LJ          -3.48292        -4.03354        -3.49997
LJ          0.784659        -1.80842        0.659109
LJ           3.13713         2.53402         3.74302
LJ         0.0214158          1.3885        -5.67085
LJ      -0.000553082         4.65123         1.23821
LJ          -2.58693         4.87808        -2.18933
LJ          0.149935       -0.490884        -2.41252
LJ           4.32844         3.06641        -6.18944
LJ           4.80518      -0.0906417         1.89128
