108
#Comment!
LJ           3.46912         4.96833         1.84248
LJ          -2.55161        -3.48266        -2.26449
LJ          -2.19173         4.60489         6.40156
LJ           4.71019        -3.46739        -2.54391
LJ          -2.85847        -5.87373         6.39369
LJ           6.04518         1.70799        -2.28541
LJ          0.742196          5.5744        -3.47052
LJ         -0.305252         2.75288         5.84129
LJ           1.94906         5.38853        -1.84381
LJ           5.15884        -3.27936        -2.48258
LJ          -2.51533        -4.36394        -1.26595
LJ           -4.8579        -4.59124         4.87211
LJ          -2.08522        -2.94086         2.60515
LJ          -1.89125         5.90869         1.59423
LJ           4.31869        -2.61702         1.77256
LJ          -5.73303         4.94554        -5.74231
LJ          -6.06524        -4.72585         3.95376
LJ         -0.407945         -5.4694        -5.11228
LJ           3.56486       0.0591309         0.24788
LJ          -0.31129        -1.85114       -0.466277
LJ           3.65343       -0.792504        0.402933
LJ         -0.673354         2.63541          4.8839
LJ         -0.631537        0.499977         3.55207
LJ           5.54209        -5.44949        -2.09368
LJ           5.26474         2.43073        -5.03805
LJ           4.91859        -1.06599         3.77575
LJ           4.03638       0.0247614         6.40746
LJ          -5.86184         5.00658        -2.56802
LJ           6.18124        -4.34826       -0.271518
LJ          0.428461         1.70193        -4.68169
LJ           4.05217        -5.31821        -5.76275
LJ          -1.20272       -0.551064        0.196768
LJ          -3.95518        -2.93026        -4.14256
LJ           3.66648         4.99771         4.28973
LJ          0.756796         2.30607        -4.37369
LJ           2.72773         1.97125        -2.42578
LJ           2.22975        -2.94079       0.0680714
LJ          -1.33774        -5.59268        -4.62471
LJ         -0.116976         1.58401         6.13799
LJ           3.49653         -4.4016       -0.625668
LJ           4.57172         3.45236       -0.737799
LJ           -2.0509         -1.4494         1.74931
LJ           2.56378         6.36405        -5.12047
LJ          -2.78223         2.61206        0.589525
LJ          -3.65112         1.12601        -3.34129
LJ          0.724586        -4.57103        0.629543
LJ          -6.18351        -3.43547         -4.4105
LJ        0.00102829         5.77164         3.52454
LJ          -2.08857         6.20682        -3.74161
LJ         -0.746814        0.553187         3.80275
LJ         -0.256643        -5.85702         1.93335
LJ          -5.78831        -4.55981        -5.98352
LJ          -2.51873         3.61717        -2.39143
LJ          -4.27682        -1.78017        -3.36758
LJ           2.02964      -0.0667536         1.00735
LJ           5.27601         1.07892         2.31908
LJ           5.20704        0.414707        -1.87771
LJ           -5.8244        -5.96161       0.0398683
LJ          -6.37954         1.21399        -5.74202
LJ          0.623179       -0.160846       -0.346026
LJ           -5.6875       -0.894048         2.92159
LJ          -3.49591         1.50879        -6.03113
LJ           1.80402       -0.634651        -4.48984
LJ          0.438232       -0.369125          2.4898
LJ           1.55151         1.90435         1.46466
LJ           5.76425        -6.03156         4.56447
LJ          -1.86093        -5.21144        -3.03427
LJ          0.911055        -4.21842        -1.29042
LJ          -1.57989         4.18045      -0.0841855
LJ          -1.73987       -0.166192         3.21684
LJ          -2.14048         5.34215         1.96814
LJ          -5.88329         2.89237        -5.79215
LJ           6.45623         5.99677        -1.13034
LJ          -1.24071         1.84833         3.93722
LJ         -0.256762         1.29552        -4.86807
LJ           4.88179        -4.29848       -0.373846
LJ           5.40546         5.72308         -3.9944
LJ           5.68876       -0.879466        -1.15458
LJ             1.685        -4.00478        -2.90531
LJ          -2.77089         -3.6546         5.58152
LJ          0.532002       -0.520618         -5.7178
LJ             2.224         3.88053         6.11996
LJ          -2.53494        0.347097        0.389578
LJ           1.84683          6.2384         -2.1534
LJ         -0.327093         2.73526         2.14662
LJ        -0.0583192        -2.96177         3.82748
LJ          -1.12206        -1.40706        -4.68652
LJ          -4.22873         -4.2523        0.288803
LJ           -5.7392        -5.99195        -5.34499
LJ           3.19231        -2.85758        0.618749
LJ          -4.19313        -3.27152         -5.3396
LJ          -4.03911        -2.74347        -5.87688
LJ           1.56445         4.81752        -1.63557
LJ           1.44701         3.61696        -1.38486
LJ          -4.31793        0.825267         -3.2269
LJ           4.39879        -3.35733        -3.39652
LJ           -2.5756        -3.99772         4.00732
LJ            5.6693        -3.17761        -5.69028
LJ           2.58098       -0.745411       -0.888823
LJ          -1.90105        0.547542        -4.81367
LJ          -3.23586        -3.14723        -6.28913
LJ           2.09302        -1.99786        -2.57344
LJ          -2.77336         2.08526       -0.162506
LJ           6.29988         -5.3424       -0.588447
LJ           5.15227         5.92044        -1.14047
LJ         -0.472299        -5.70428        -2.18054
LJ           2.84273        -3.67881        0.999324
LJ           6.29869         3.19369       -0.661898
