108
#Comment!
LJ           4.30088        0.509145         3.93492
LJ           3.14401       -0.180154        -4.09337
LJ           2.07591         5.88529         2.24512
LJ           1.41705        -2.30908       -0.545451
LJ          -3.63487        -3.02923         4.25007
LJ         -0.163343        -5.01875         -3.4006
LJ          -6.39785         1.93366         5.06927
LJ          -3.54385       -0.232419        -2.52107
LJ          -2.25424          4.4413         2.21129
LJ          -2.02214        -1.97857         6.33501
LJ           3.73158       -0.887753        -5.17754
LJ          -4.74152        -6.36153        -1.74092
LJ          -1.30115        -1.74556         6.35214
LJ          -2.26888        0.981222        -0.60206
LJ          -2.47458       -0.579035        -6.30154
LJ           -5.1274        -2.97271         -1.6384
LJ           2.37137         1.85981        -4.26411
LJ          0.427021         6.15025        -2.82865
LJ           2.06307         6.41195        -5.64138
LJ          -5.93492         4.23241        0.889687
LJ          -1.87452         1.83992         5.07448
LJ           4.87893          3.1912         5.35718
LJ          -1.94608         3.02871        -5.61109
LJ           2.46814          1.3891        -5.96464
LJ          -4.41403       -0.276365        -1.05594
LJ           5.00663         3.60413        -5.50453
LJ           -2.8056         4.90848        -5.60514
LJ          0.299179        0.537481        -5.73962
LJ           6.19339        -4.99296         1.80773
LJ           3.28182      -0.0455573       -0.398602
LJ          -2.93683         5.14408         4.76581
LJ         -0.804477         4.31902         5.94575
LJ           2.43227         6.17224         1.44173
LJ           2.02174         5.74858        -3.14903
LJ           2.01773        -3.05927         5.27187
LJ          0.334762        0.312868        -2.24586
LJ            1.4897         4.07055        -3.26637
LJ          0.561131       -0.284409        -3.60789
LJ          -0.30703         1.06379        -4.82418
LJ          -5.65578          4.4286        -3.94607
LJ          -3.66675        -3.73267        -2.00454
LJ          -5.37525         -3.7503        0.551947
LJ          -6.16379        -1.52991         -4.8585
LJ           5.99899         2.11927       -0.406188
LJ          0.971346         1.25244         3.74545
LJ           4.51887         2.05382        -1.74114
LJ          -2.64409         3.66726        -3.24742
LJ          -6.21779        -5.48187        -1.65073
LJ           2.63086        -6.41671        -1.87242
LJ           5.76335         1.06164         6.22044
LJ          -3.63238         2.31786          3.8056
LJ           1.76156        0.427917         3.79503
LJ           6.20778        -5.00745        -4.99683
LJ           5.27444        -1.11727         5.98611
LJ           3.90344        -1.20206       0.0853606
LJ           5.07171        0.465816         4.94957
LJ         -0.646525         2.55776          3.8981
LJ          -3.97312        -1.41961        0.903414
LJ          -1.11927         3.21521        -2.38349
LJ           -2.9486        -3.32679       -0.478318
LJ           -2.5945        -3.53296        -1.48302
LJ           3.83194         3.73291        -5.70512
LJ          -3.49459        0.905684         4.70412
LJ          -6.18553        -5.36501         4.19898
LJ           4.75981         1.58021        -6.35496
LJ          -5.65652        -5.32659        -6.28112
LJ         -0.420013        -6.19915         2.42035
LJ          -3.71733        -2.83749         3.95812
LJ           6.06939         -4.3095         -1.1241
LJ          -1.03052        -1.93542         3.75375
LJ           5.29459         2.32354        -3.82106
LJ         -0.454171         1.71921        -5.76398
LJ          -3.96583        0.889059        -2.74575
LJ          -2.94577        -1.00038          6.3831
LJ         -0.220551         0.98647         -5.9649
LJ          0.731129         3.83649         2.61412
LJ          0.540249        0.384423         -1.3791
LJ          -5.20266        -1.12173          5.9915
LJ          0.800039         2.34757        -1.89806
LJ           4.63727        -4.92622        -4.29372
LJ          -6.21203         -5.2304         2.30639
LJ           2.97469        -6.26534          1.4575
LJ          -6.05471        -5.24158         1.52593
LJ          -1.66823         2.15199         4.37045
LJ          -2.73697        -1.51106        -2.87321
LJ          -3.68085        -4.81334        -3.67088
LJ          -6.42655        -6.24246         3.85744
LJ         -0.656642         1.75663        -1.99557
LJ          -4.10142         1.28673         3.51594
LJ          0.728984        -2.01877         2.19555
LJ           2.18063         1.92552        -4.94848
LJ          -5.77164         6.44655          0.3653
LJ           6.18972       -0.905927         0.52357
LJ          -1.68503         5.45013       -0.170733
LJ           3.24188        -4.94063        -5.46945
LJ           6.27906         -5.2641       -0.397513
LJ          -1.03292       0.0790384        -2.57217
LJ           6.05366        0.318666       -0.417625
LJ          -2.12495         3.04086         3.51846
LJ           1.82785         5.68958        -1.19143
LJ           3.39526         4.79873         5.83946
LJ          -2.88114        0.949592         5.78179
LJ           6.13582       -0.632337        -5.95128
LJ            4.0105         5.02416        -4.55411
LJ          -1.75928        -5.35642        -1.63612
LJ          0.905606         6.19117         -5.9218
LJ          -2.55295          6.3448        -4.39297
LJ          0.584297         5.73493       -0.733021
