108
#Comment!
LJ          -2.13677        -4.41386        -6.14523
LJ           4.25351        -1.02701       0.0408469
LJ           6.15011         3.45287        -3.82078
LJ          -2.59155        -3.68475        -3.02574
LJ           5.90011        -1.05718          4.9622
LJ          0.581513        -3.19988         -1.4576
LJ           -2.7998        -1.66644         3.60631
LJ           5.87827        -2.73665        -1.52935
LJ           -4.1338        -4.89222        -6.07186
LJ        -0.0835658        -5.47268         2.21047
LJ           5.71908         2.09609         2.18077
LJ          -5.75928        -1.98974       0.0469956
LJ          -2.45426         3.78332       -0.710074
LJ          -5.06831         4.13142         2.20308
LJ          -2.94512         1.81771       -0.485547
LJ           4.16089         3.55114         4.91809
LJ          0.378701       -0.698074        -6.03981
LJ           6.09179         1.59998        -1.34035
LJ           3.60375         3.65281        -5.08874
LJ            3.7199       -0.641156        -5.90956
LJ          -1.09405        0.428453         3.74542
LJ          -5.07352         5.52441         -6.2229
LJ            2.4495         -2.8127        -1.52015
LJ           5.47885          2.2952        -2.31591
LJ            4.3007         3.53272        -5.86975
LJ           4.39102        -3.84724         5.73733
LJ          -5.45023         6.44879         6.28242
LJ           2.49875        -5.29192         -2.6955
LJ           -1.5615        0.230207        -4.67132
LJ            -4.627        0.697605        -5.56547
LJ           5.46801        -1.47323         3.88377
LJ          -1.23313         3.88448         5.71349
LJ           3.02063        -2.02672         3.80654
LJ           0.30768        -5.35346        -6.34706
LJ          -2.26548        -4.71857         4.41948
LJ          -4.47057        -4.75581        -6.42442
LJ           -4.4138         1.68489        -4.46345
LJ           0.15205        -0.11058        -4.20264
LJ           -3.6518        -2.81885        -5.76228
LJ          -4.81969        -3.16665          6.0789
LJ          -4.66045           3.121         2.47498
LJ          0.969127        -4.25278        -3.57285
LJ          -0.30136        -4.25944         3.40218
LJ          -5.00557         5.43153        -4.30615
LJ          -1.04015         3.29489        -1.36718
LJ          -5.87142         5.32259         1.10261
LJ         -0.195387         3.75608        -2.42993
LJ          -6.30848        0.874242         4.82069
LJ          -1.74081        -2.04478       -0.257863
LJ          -3.81966        -0.73928         1.32635
LJ           1.45543         1.82899        -2.09044
LJ          -6.44714        -5.96775         5.67495
LJ         -0.441082         2.35905        -3.32684
LJ          -6.10577        -2.90002        -1.02109
LJ           3.69419       -0.756087         1.39622
LJ           1.68768        -2.74918         4.89828
LJ         -0.945845         1.92952         2.27649
LJ         0.0315067         1.65623         1.94366
LJ           5.66933         1.53984        -4.89013
LJ          -4.22866         -3.8357        -5.58049
LJ           3.55494       0.0503195         4.36942
LJ          -2.44325        -1.12047         6.44179
LJ          -5.18395         6.22279        -2.46221
LJ          -3.56504         -5.4481        -6.16281
LJ           3.53392         1.74777        -6.11768
LJ          -2.39222        -1.19385         2.56063
LJ           2.15458        -4.44098         6.17135
LJ           1.68031         4.96089         5.54167
LJ           1.92104         3.99115         5.20218
LJ           -6.1751       0.0343959        -2.63126
LJ          0.662938        -2.14065        -0.23393
LJ           3.65432        -3.77766        -5.75646
LJ          0.256385         3.96427         5.88918
LJ          -3.89714        0.557942        -4.38287
LJ           1.73615         6.23003        -1.69153
LJ          -4.28296        -5.26796      -0.0699273
LJ           5.92983        -2.97272       0.0481353
LJ          -4.02921         2.87295        -6.12461
LJ        -0.0815813         5.28291        -2.71792
LJ          0.861375       -0.558838        -4.97411
LJ          0.425945         2.71901        -5.68182
LJ          -5.13792        -5.70008         5.66474
LJ         -0.494537        -5.66053         2.81924
LJ          -4.99718       -0.041176         5.22296
LJ          -4.82536        -5.89419         -5.1301
LJ           1.56899         3.96825       -0.276998
LJ          -2.73514        -3.77491       -0.408359
LJ          -5.51158       -0.427446        -3.85794
LJ            5.7956        -2.35657          5.1057
LJ          -4.99619        -2.93223     -0.00370023
LJ          0.980323          3.0386        -3.31361
LJ          0.888966         1.79172        0.529154
LJ          -4.98291         1.59686        0.962439
LJ          -3.71315         4.46957         5.54721
LJ           -4.3507         4.32309        -3.51819
LJ            5.3514         5.99006       -0.178032
LJ          -3.00493         6.17106         5.54167
LJ           2.17924        -4.37783         1.37009
LJ           4.61036         2.28635        -5.41851
LJ          -3.48275        0.945771       -0.525181
LJ           1.78527        -4.44595         4.87556
LJ           2.24249        0.271685         1.74643
LJ          -1.38954         5.77082         1.60841
LJ           3.79256        -3.30725        -2.06951
LJ          -4.40629         1.60991         1.01824
LJ          -1.56092        -5.00022         2.38881
LJ           -2.5141         4.75344        -4.56387
LJ          -5.21711         5.58215        -2.41133
