108
#Comment!
LJ           2.90949        -3.03636        -1.05316
LJ          -3.62296         2.41174        -6.33015
LJ           4.49075         6.04174        -5.68462
LJ           5.10531         4.76376         -1.9446
LJ          0.706796         1.63099        0.796797
LJ          -3.84639        -5.33014       -0.933467
LJ          -5.95235        -4.38373        0.268019
LJ           6.09401        -5.21378        -3.88004
LJ           2.51652         -5.9186        -1.01211
LJ           3.12383        -4.77697         5.81982
LJ           1.02171       -0.617763         5.99382
LJ          -4.20018         2.77317        -6.20211
LJ           2.03366        -2.16858        0.203694
LJ          -6.32288        -4.90566        0.783715
LJ          0.407973       -0.160585        -6.22215
LJ            5.2358         6.31999          1.9299
LJ            1.9935         4.28507        -4.45929
LJ          -4.64179         3.70736          5.8095
LJ            4.5638         6.00431        -6.13842
LJ           4.39198         5.31875         -2.2851
LJ          -5.62307        -5.16684         1.09912
LJ          -5.13139        -3.80386       -0.463294
LJ           4.74887        -3.14806        -2.90534
LJ           1.54939        0.593777        -5.55875
LJ           -4.9842         3.55975         2.66813
LJ        0.00895497         2.07421         3.42522
LJ        -0.0149874        -5.26077        0.833252
LJ          -2.37103        -1.06317        -2.53137
LJ          -4.26819        0.912951         2.74789
LJ          -1.85869        -2.81548        -4.70425
LJ        -0.0150719        -3.82609         2.18816
LJ          -1.02729         4.52759         1.03074
LJ           5.04809        -5.55289         5.13434
LJ          0.383135         4.09237         2.97346
LJ          0.176657        -6.18579        0.319509
LJ          -2.53859        -5.77687         1.47083
LJ           3.39865       -0.649063         5.70446
LJ          -5.65567         1.46864        -1.40755
LJ           5.23573         1.16783        -1.09137
LJ          -4.87272        -4.47111        -5.55756
LJ           3.48214        -5.68787       0.0308162
LJ         -0.463567        -2.79396        -5.35047
LJ           1.04541        0.425975        -5.22457
LJ           3.36888        -4.11228         4.12569
LJ          -6.26765        -1.79182         4.46177
LJ           2.05676        -3.71841          4.0302
LJ           1.16809       0.0533342       -0.860977
LJ          -1.44234         1.29407       -0.561535
LJ           1.95255        -4.94422        -3.86712
LJ           4.98713       -0.812014         3.63412
LJ          0.734709        -5.09327         2.36906
LJ           5.15359        -3.82097         1.75855
LJ           2.64892         3.71181        -5.21957
LJ           6.19627        -4.80121        -2.87869
LJ          -3.98152       -0.581001         3.04317
LJ         -0.204539         6.00214        -4.85935
LJ          -4.08617         5.89647        -1.82424
LJ          -5.68615        -5.22878        -1.68725
LJ           1.10156         -4.0812       0.0033364
LJ           6.41177         6.06544         1.95723
LJ           3.47886         4.62858        -1.89689
LJ          -2.83843        -3.77081        -1.10395
LJ          -4.88041        -5.68892         5.33447
LJ         -0.493082        0.620871        -5.66806
LJ          -6.29718        -2.24549         4.53986
LJ           3.89147        0.161735         5.11946
LJ          0.346477         1.06245        -3.75311
LJ         -0.222296        -2.32375         5.78461
LJ           5.38252        -4.59709       -0.254013
LJ          -5.22551        -2.19429        -5.31233
LJ          -3.13774        -2.80671         4.43056
LJ          0.926596        -5.90388         -4.4528
LJ           1.57046        -3.31756        -2.14265
LJ           6.02854        -5.21796        -5.17037
LJ          -6.39987        -2.90134        0.193456
LJ           1.12369        -2.59208        -6.19623
LJ          -3.92415       0.0575344         3.51645
LJ          -4.31304         3.07344         4.74994
LJ          0.471634        -1.89187         2.78093
LJ           5.32864         2.05543        -4.52923
LJ          -6.13133         6.28313         3.63956
LJ          -4.96882         3.62339        -1.73486
LJ           3.06454         1.58787         1.99547
LJ          -1.68147          4.5144       0.0877157
LJ           -6.4438         1.49242         2.55694
LJ           5.70678        -5.88462         3.29795
LJ          -2.88694         -6.1049        -5.21943
LJ          -2.13232         1.21176         3.51217
LJ           5.87998         3.71164        -2.58835
LJ          -2.67162         5.90933        -5.90799
LJ          -5.56663        -2.88195        -4.08532
LJ           6.45002        0.853468         6.20618
LJ          -4.53153        -4.26454       -0.263434
LJ          -2.55121        -5.07729         5.85379
LJ           3.92768         3.90762        -2.74355
LJ           2.58653        -3.27347         6.20069
LJ         -0.979309        0.508958        -4.16248
LJ            -1.906        -3.88854        -1.35027
LJ          -3.18874           2.817         1.02236
LJ            2.0745         2.35162         4.50195
LJ          -3.04981         1.53223        0.623453
LJ           3.63619        -4.70755         5.33925
LJ           1.07825        0.708822         2.18535
LJ          -5.43034        -3.18811        0.146667
LJ           3.13867        -5.05959         5.46842
LJ           2.87519        0.769566         5.68981
LJ           1.17227        -1.15809        -6.07643
LJ          0.448108         -1.4809        -0.81794
