108
#Comment!
LJ           3.82909         4.71264        -4.33046
LJ          -4.70942        0.465527        -4.14242
LJ          -4.52014        -1.08148        0.204438
LJ           1.89593         6.35889         4.07554
LJ         -0.643936        -1.35805        -4.22119
LJ           5.25819         5.88603         3.04902
LJ         -0.665558        -2.36712         1.20743
LJ           0.36085       -0.236709        -3.47546
LJ          -5.39523        -3.30994        -6.24488
LJ           1.05291        -3.42699        -4.56386
LJ           2.58321         5.41592        -5.64966
LJ           5.31844        -5.57346        -1.60756
LJ          -5.78299       -0.932137       -0.594831
LJ        -0.0795792         4.63323        -4.34345
LJ         -0.764655         2.46232        -1.53292
LJ          -4.31554         4.00237        0.432751
LJ           2.12417        -1.41446        -4.10392
LJ          0.156436        -1.48566        -6.20997
LJ          -2.44286       -0.732582        -2.07173
LJ           2.61813       0.0879943       -0.205812
LJ         -0.013002        -3.44866        -4.05886
LJ           1.91018        -2.47768         6.30691
LJ            3.9897         2.12399         2.52459
LJ          -5.45081        0.860832         3.23834
LJ           6.06501      -0.0444135         6.29171
LJ          -4.42028        -1.04737         6.43527
LJ          -5.48786        -0.43033        -6.28729
LJ          -2.13609         3.46476        -6.35159
LJ           5.46401         1.86368          5.1722
LJ           5.22449         3.92941         3.01868
LJ         -0.419021         4.04412        -3.36335
LJ           1.97535        -2.48254        -5.35972
LJ            4.9041        0.466957        -5.75118
LJ         -0.553402         3.94448        -5.19472
LJ           2.22855        -3.90886        -5.29439
LJ            3.6359      -0.0647146        -1.59837
LJ          -2.12481         5.35122         3.71803
LJ          0.202658        -1.50261      -0.0502212
LJ           -1.9906          3.5985         1.18718
LJ          -3.92064       -0.154234       -0.589176
LJ           1.74854        -1.88092       -0.705029
LJ          -4.20221        -2.16665        -5.11286
LJ          -5.64272         6.02371         1.07529
LJ         -0.894642        -3.24173        0.265983
LJ         -0.328837        -2.38984       -0.444817
LJ          -5.15816         1.53741         2.11756
LJ           2.91615       -0.494372        -2.48216
LJ          -2.51124        -2.34825      -0.0304348
LJ           6.34127         -2.7294        -4.11616
LJ          -6.07122        0.095363       -0.776647
LJ           6.45075         1.69889         2.18422
LJ           3.44858         1.77521         4.05757
LJ            3.2531         2.80199         6.18539
LJ          -4.19615         3.00728       -0.300207
LJ          -1.13512         3.14366        -2.56564
LJ          -0.72425        -2.78667         5.36006
LJ          -1.26955         -1.2125        -4.86499
LJ           5.64541         1.27602        -3.18692
LJ          -3.50108        -4.14506          1.0217
LJ          -4.83069       -0.460858       -0.913338
LJ          -4.62741         6.16446         4.80774
LJ          -2.08608         4.05141        -5.53773
LJ           3.44214        -4.73984        -1.12209
LJ          -4.48946         1.08445       -0.441444
LJ          -3.53331         2.77919        0.519099
LJ          0.556332         5.51778         2.42789
LJ          -3.02932        -4.15991        -1.11106
LJ           2.05222        0.768068        0.850844
LJ           2.77894        -1.88009       -0.130923
LJ           1.83883         4.35049         2.05222
LJ          -1.50776         0.99915         1.85091
LJ           1.74341        -3.73577        0.353769
LJ          -1.09773        -1.84242        0.353697
LJ          -1.48225        -1.13445         1.07218
LJ          -4.31779         2.82537         4.19948
LJ          -4.57276        -6.42566         0.41959
LJ           -5.8545         -6.2099         6.25991
LJ          -1.69786        -3.09716        0.962055
LJ            1.3469        -4.96022         6.04063
LJ          0.839821        -3.40933         1.07345
LJ          0.464001         3.31545         3.83968
LJ           3.80056        -1.18911         -2.1146
LJ           1.81784         -2.8802        -1.26305
LJ          0.319284        -3.14961         2.05558
LJ           -5.4192        -4.23853        -1.87551
LJ          -5.03276        0.891254        0.908328
LJ          0.595524         1.03182        0.981426
LJ          -1.25564        -0.82117        -1.41153
LJ           5.77638       -0.113053       -0.481078
LJ         -0.274805        -2.25589         4.30172
LJ          0.729669        -2.16716         3.41034
LJ           5.35576       -0.422234         -3.1134
LJ           1.16363        0.744773        -1.51535
LJ           3.22858         2.43566        -1.40994
LJ           5.03089         3.41447        0.120091
LJ           3.07642        -0.63329        0.612876
LJ          -5.37486        0.259095       0.0536229
LJ          -3.42866         2.26791       -0.761121
LJ         -0.177827        -2.34416        -3.58646
LJ          -4.13107          3.2103        -1.25765
LJ           -1.2991        0.187041         2.60938
LJ           2.42971        -4.99411       -0.284853
LJ          0.800819        -1.17603         3.89033
LJ        -0.0977306        0.748961         2.04421
LJ           3.89363        0.408296         1.69768
LJ           3.17807         1.15148         1.78707
LJ           3.66386         1.22968        -2.57515
LJ           4.10253        0.909905         2.61354
