108
#Comment!
LJ          -4.66266        -4.97239        -1.46448
LJ          -3.41086         1.67587        -1.33769
LJ          -1.06341         2.35978         -6.0751
LJ           -1.1208         2.46989        -5.21263
LJ          -5.88035         1.27084        0.867543
LJ           2.37144         4.24099         3.20084
LJ           1.73449         -2.5491         5.47803
LJ          -2.11933         4.78362        -1.29429
LJ            1.9376        -2.62549         2.84166
LJ          -4.99218        -5.55861         4.67967
LJ           2.22813        -4.51779         4.23317
LJ          -4.21913        -4.05567         2.65492
LJ         -0.645732         2.39953         4.16217
LJ          -4.91158        -2.22037         2.75871
LJ          -1.45687         2.21413        -1.49416
LJ          -2.18646       -0.492367        0.498396
LJ         -0.199327        -2.95175         2.18621
LJ           4.39941        0.611899        -4.32631
LJ          -4.87394         2.59254         3.09798
LJ          -4.73474        -4.67701        -6.31925
LJ           1.85477         -6.1358        0.549386
LJ          -5.90917         1.14255        -1.93536
LJ          -3.32812         5.77618         4.71856
LJ           2.60717        -3.77028        -5.46981
LJ          -3.42609         2.50007        -2.23124
LJ          -2.68676         6.17744         2.94952
LJ           -3.6273           2.794        -2.67507
LJ           3.40617         3.68419        -5.36228
LJ           4.76287         1.28415         1.82629
LJ            2.6117        -6.28513        -3.23898
LJ          -4.00349         -4.6103        0.742549
LJ         -0.939974        -6.40158         5.52448
LJ          -2.07643          0.7944         3.75687
LJ           3.24984        -3.65919         1.06488
LJ           4.28963         4.27123          -5.713
LJ           1.49325        -2.12585         3.45342
LJ          -2.85509         1.18556        -2.84332
LJ          -0.28667         1.13764          3.6632
LJ           3.01626        -2.21217        -5.33225
LJ           2.85109         3.94287         4.73628
LJ           5.77979         -1.0098         5.83301
LJ           5.33867         4.38514         4.43512
LJ           2.38599        -4.83778        -4.95225
LJ           2.65414        -3.66085        -4.92886
LJ          -1.62841         3.29429        -1.45267
LJ           2.88652        -4.34775         5.42819
LJ           5.45544         5.80368          4.4561
LJ           -2.3906         2.12445       -0.463162
LJ          -4.42449         0.22684          4.9082
LJ           4.23655        0.323868         2.12869
LJ          -1.89913         3.67929        -1.86991
LJ          -5.59742        -2.14299         2.36671
LJ          -2.21757        -2.69873         -6.3216
LJ          -4.11694        -3.66253         5.63636
LJ          -2.84707        0.351293        -4.22885
LJ          -5.10257         4.22474          4.1681
LJ           4.62469         4.52983        -0.82987
LJ          0.526483        -5.87752        -1.41977
LJ          -3.77898         3.83384          2.1342
LJ           1.08705        -4.74283        -6.24043
LJ          -1.12152        0.946514         5.81454
LJ          -1.27025         3.66853         1.91745
LJ         0.0747009        -4.65791         5.42729
LJ           3.90974         5.09882        -4.94806
LJ          -1.49437        -1.41772        -1.35403
LJ           2.97554        -1.75643         1.41865
LJ          0.863233         4.33988        -1.21494
LJ           -5.6798         0.87534        -5.80113
LJ         -0.572118         4.32722          2.8191
LJ          0.706627         2.00587        -2.10191
LJ          -6.13984        -5.18144        -4.35094
LJ         -0.545309         2.79117         3.79966
LJ          0.964021          6.3947        -1.92322
LJ          -4.47416         1.93434         1.70302
LJ          -2.17718        -6.28723        -2.11423
LJ          -3.89489         1.11827        -4.63141
LJ           4.46529         2.23986        -2.10266
LJ           2.67642         6.26143         5.73399
LJ          0.137591        0.803941         -4.2872
LJ          -2.18587        -2.46622         4.03319
LJ           5.79376        -5.70509         -3.9338
LJ         -0.438049        -0.88696         2.59071
LJ           -5.4767         2.34267        -1.70072
LJ           6.45353        -2.41873        -5.47357
LJ          -1.60774         1.01644        -2.74429
LJ          0.110105         4.66524        -6.17131
LJ         -0.297303        -3.09591         2.77177
LJ          0.562256        -5.52261         2.09752
LJ             1.105        -1.37279       -0.354969
LJ           -2.8873          1.4121         5.71778
LJ         -0.263507       -0.674828         4.25438
LJ          -5.24827         3.73938        -3.88561
LJ          -3.30446         1.32288         5.32882
LJ           1.87697         3.30326         5.95402
LJ          -4.69037          6.2671         1.29962
LJ           5.06491        -2.11037        -5.42759
LJ           3.83505         2.53013        -3.89701
LJ           4.59952       -0.642218         3.76636
LJ           1.61067        -2.91949         3.90954
LJ          -2.63322        -1.31098          2.1838
LJ          -2.84085        -3.65623         3.61557
LJ            4.3899        -2.74179         4.21028
LJ           2.16672         1.18029        -2.59095
LJ           -3.6654        -1.56744        -4.23962
LJ           -2.1662        -1.39399         6.20704
LJ         -0.553118        -3.57292        -5.15295
LJ          -5.12878         3.92275       -0.982939
LJ         -0.332943         6.21417       -0.714816
