108
#Comment!
LJ           1.13636        0.143096         -5.5742
LJ          -0.50401         1.02266        -5.21494
LJ           1.84597        -2.67436       -0.519605
LJ          -4.29506        -5.52001         6.45142
LJ           5.17008        -2.31254         4.92163
LJ          -5.01549        -0.60203         -5.1646
LJ           1.97809         1.00837        -4.30672
LJ            4.7138         1.69222       -0.163891
LJ           1.24364         6.15461        -1.46058
LJ           4.13664         3.89601           4.694
LJ           3.64295        -3.76393         2.38688
LJ          -3.45234         1.02519         -2.5337
LJ           1.77661        -5.10498         5.24824
LJ          -2.83878         1.71559        -3.29345
LJ          -1.85413          1.2264        0.880311
LJ         -0.163409       -0.752903        -5.83195
LJ          -0.58796        -3.27671         4.40434
LJ           3.47744         4.31061       -0.414627
LJ          -6.03623         2.76473         5.18028
LJ           3.88713         1.06674         4.51692
LJ          -3.63088        -5.05421        0.391024
LJ           5.07056        -1.56183        -4.90226
LJ            4.1003        -3.84682        -5.87248
LJ          -4.27666        -4.16056          3.8926
LJ          -4.95013        0.714342         5.32458
LJ          0.248659         1.50813        -6.37344
LJ            3.2983         5.73626        -4.12385
LJ           2.23707         2.65393        -4.94405
LJ          -3.30757        -0.67971         3.69003
LJ          -2.77611        -0.25366         -5.1076
LJ          -2.47502         2.54643         -4.8866
LJ          -1.36002        -3.48279      -0.0650387
LJ           3.29066         1.40453        -4.89634
LJ           -1.2452      -0.0190104         3.17341
LJ           4.06423         -3.6811        -1.43174
LJ           5.97749         2.87735        -5.73293
LJ           1.43791          1.1284         3.85241
LJ          -1.49295         5.86352        0.660693
LJ           6.24532        -4.84098         1.02657
LJ          -2.81121         4.31672         1.45489
LJ           -1.1359         1.61346        -5.79682
LJ           2.50404        -0.53106         5.74492
LJ          -3.51198        -1.19942        -3.20845
LJ         -0.532331         -3.9004         6.13098
LJ          -1.61591       -0.913659         1.71099
LJ           1.71833         1.39294        -2.54415
LJ          -2.77815        -1.59367        -5.23586
LJ           3.04057        -3.14681         1.06675
LJ          -2.58695        -4.88071         6.28199
LJ         0.0970006        0.245746        -2.87498
LJ           3.73431        -3.11264         6.10357
LJ          0.639914         3.87859       0.0202827
LJ          -1.12032        -1.06958        -3.58412
LJ          -5.12432         1.71695         6.38558
LJ         -0.813261      -0.0481713         1.41815
LJ           2.06663         5.67884         2.96928
LJ           1.32182        -1.58181         2.66394
LJ          -2.61443        -5.47921          0.7569
LJ         -0.265455         3.01662         2.81103
LJ          -2.63176         1.26219         2.52179
LJ          0.640781         3.97617         5.59109
LJ           2.99636         3.16131         -2.5116
LJ         -0.403644        0.187736         3.28295
LJ         -0.298093         4.53838        -4.67303
LJ          0.248656         3.88691        0.432202
LJ            5.2079         6.18648        -4.36224
LJ         -0.539146        -1.00601         6.14174
LJ          -2.61912         5.84062        -6.17243
LJ          0.100937         2.07251         4.91464
LJ           1.21405        -5.94367        0.540195
LJ          0.680932        -0.54242        -6.18935
LJ           2.73443        0.888269         -1.0208
LJ           3.53375        -0.69648        -6.13526
LJ          -4.86394        -2.98307         3.10216
LJ          0.653693        -2.64168       -0.934876
LJ           4.56507        -1.81715         1.67869
LJ          -5.27036        0.354459        -2.00079
LJ         -0.520644        -2.42767        -5.09612
LJ           4.10862        -3.00363        -1.97711
LJ           2.16372         3.30882         6.07708
LJ           2.95429          3.7926         4.58525
LJ          -0.75038       -0.163013         3.28015
LJ          -5.21431        -4.09442         3.92343
LJ          0.666903        -5.40046        -5.51475
LJ          -4.15494        -1.66735        -3.39253
LJ           4.43326        -5.98987        -1.39697
LJ            1.1316        -3.45459        -1.69773
LJ          -3.53693         5.97006         4.17821
LJ           5.99626        0.545955        -3.56866
LJ           2.44651        -5.77142        -5.75547
LJ           4.00387         1.34432         5.60101
LJ          -2.41092        -3.26057        -4.14301
LJ          -2.12421        -2.30208        -5.13954
LJ           3.49423        -4.41794        -2.29755
LJ           3.64846        -3.80637        -2.16378
LJ           3.17898         2.34843        0.655377
LJ           2.40214        -4.67109        0.778929
LJ           5.22259         2.91599          3.0513
LJ           2.79452        -0.76142        -6.32174
LJ          -6.27636        -3.28329       -0.253907
LJ         -0.963428        -2.05916         2.66877
LJ          -3.87115         -5.9984         1.73327
LJ           4.08849         3.04595         1.16492
LJ            4.7885         3.49008        -5.91785
LJ          -1.20399       -0.978511         3.38814
LJ          -3.73073        -3.33238        -3.76235
LJ          -1.76904         4.41536         -2.3839
LJ           5.58267        -4.89386         5.00421
