108
#Comment!
LJ           0.95456      -0.0855459        -3.19659
LJ           4.58378        -1.22657         2.01744
LJ           2.57931       -0.588107         1.19746
LJ           4.93608         3.39365         1.27617
LJ          -3.32164        -4.80018         6.08169
LJ           3.57285         5.50388         0.45382
LJ           -2.4237        -1.14605         4.13244
LJ           4.69849        -1.87067        -3.71528
LJ         -0.910378         4.83509         1.55858
LJ          -3.42444        0.459904        -5.83805
LJ          -4.13633       -0.746095        -5.28403
LJ          -3.71568         2.15536       -0.452235
LJ          0.796996         4.90098        -1.00916
LJ          -4.46896     -0.00244432        0.691954
LJ          -2.59097        0.876178        -5.53848
LJ          -1.31235        -3.45427          1.9863
LJ          0.399127        -4.65484          6.0587
LJ          -1.10285         3.37329        -4.65334
LJ          -3.38777        -2.68958         5.86457
LJ          -3.64827         2.39867        -5.12486
LJ          -2.02544         1.25666         2.30582
LJ           4.21278         5.70886         1.80724
LJ          -6.15564        0.879741        -4.76825
LJ           1.19491        -4.86968         3.34175
LJ          -2.15855          -3.422        0.479661
LJ           5.67801        -5.59237        -2.59728
LJ           -5.4965         4.63688        -2.02261
LJ          -5.86168        -1.23852        -4.29857
LJ           1.05676        -5.62967        0.724555
LJ            1.8617      -0.0510834         4.60255
LJ           1.74878         3.97296        -3.65799
LJ           3.87878         6.35731     -0.00984499
LJ           5.81954        -2.02771         4.29047
LJ            3.2971         -2.5169       -0.992514
LJ           5.41923         5.25708         1.22132
LJ         -0.712071        -1.09009         6.32933
LJ          -2.52936         6.03683         4.52173
LJ          -4.36732       -0.390294           1.676
LJ          -2.06328        -1.13957         5.88336
LJ          -5.99239         4.46282      -0.0536807
LJ           3.33388        -2.91741        -2.90491
LJ          -1.07344         -5.3777         4.47924
LJ          0.929085        -3.85077        -2.17909
LJ          -4.57322         0.44745         2.39833
LJ          -6.20188         5.65049        -5.92115
LJ           5.09115         1.55183        0.606003
LJ          -5.37362        -3.10047       -0.774178
LJ          -2.65445        0.549443         5.94261
LJ           1.23778       -0.990559         5.36332
LJ           5.78264        -1.16873        -1.83189
LJ          -1.45797        -3.73783       -0.265476
LJ           -1.9326        -4.80576        -3.54779
LJ          -2.17723         3.13275         -2.1706
LJ           3.20944         5.13905       -0.909906
LJ           3.04469         6.14777        -2.65796
LJ           -5.2953         4.78006         5.41975
LJ           2.70275         3.34431        -4.35502
LJ          -4.09541         5.48661        -1.58804
LJ           1.39887        -3.52169        -0.48503
LJ          -6.21476         5.29439        -1.03089
LJ         -0.291236        0.349748         4.94792
LJ          -3.23328          3.9233         3.41728
LJ           -5.2608         5.83482         5.66149
LJ           3.60098        -6.23276         1.44622
LJ           6.10793        -5.08921         2.96924
LJ           3.31974        -5.29235        -2.65421
LJ           3.66477        -2.01469        -2.21137
LJ            1.0769         2.33751        -2.82113
LJ           5.11639        -1.67782        -2.60825
LJ          0.802307         3.93827         3.45051
LJ          -2.35562        0.394326         1.24122
LJ          -4.67718        -1.14166         3.77346
LJ          -6.28136        -2.69457        -1.29111
LJ         -0.525363        -4.07848        -5.69635
LJ          -3.78598        -1.84779        -3.84334
LJ           2.42352      -0.0367871        -2.56581
LJ           6.00239         5.39959         -4.3036
LJ          -1.32004        -1.34261         5.01013
LJ          -4.68571         -6.3569        -4.45677
LJ          -1.78122        -4.21517        -4.68637
LJ         -0.121837        -1.05039        -3.40487
LJ           5.25049       -0.875149        -3.54102
LJ           3.20218        0.852768        -1.94527
LJ          -2.78904       -0.711531         5.24152
LJ         -0.640256         4.30848         5.74651
LJ          -3.46771        -0.45253       -0.496182
LJ          -2.06727       -0.214538         2.30516
LJ          -6.27271         2.15172         5.18534
LJ           4.43584       -0.642889        -1.75774
LJ          0.860596         4.66931         -2.1324
LJ          -4.70277         3.67083         4.44777
LJ           5.83077         0.21044        -2.80069
LJ          -2.25238         4.98041        -5.85122
LJ            2.1616         1.76987         2.09768
LJ          -3.43791        -5.77729        -4.91108
LJ           5.12476        -1.85934        -1.31191
LJ          -1.36367          -1.396         3.78623
LJ         -0.132533        -3.73952         2.11049
LJ         -0.247648        -5.63746         6.35374
LJ           5.75173         4.68795        -1.17857
LJ          -3.34647        0.803881         1.46257
LJ           3.36827        0.330002        0.193556
LJ           4.19781         1.26782         -2.7817
LJ          -2.18704       -0.172599        0.215185
LJ          -5.74231         3.45812        0.962605
LJ           4.52338         2.58553          2.0761
LJ         -0.876161        -4.54671        -1.37595
LJ            -5.857          1.2748        -5.88917
