108
#Comment!
LJ          0.889055        0.144111        -2.83856
LJ           4.31754        -1.18864          3.1985
LJ           3.31656      -0.0183058         0.78195
LJ           4.78259         2.67061        0.628654
LJ          -3.89401         -5.3678        -5.80967
LJ           3.73432         4.20645        0.501257
LJ          -2.73536       -0.679697         4.00506
LJ            4.4119        -1.98925        -4.24291
LJ          -2.10472         3.28995         1.95155
LJ          -3.70389       0.0556936        -6.08088
LJ          -2.96322       -0.207136        -5.10729
LJ          -3.49916         3.08726        0.302671
LJ           0.96335         5.96969        -0.68029
LJ          -4.24921        -1.52554       -0.266635
LJ          -2.08254         1.53104         -5.3006
LJ          -1.35303        -2.55983         2.78251
LJ          -0.43545        -3.85064         6.16949
LJ         -0.880189         4.66158        -5.01047
LJ          -2.67612        -2.90652        -6.29758
LJ          -3.90938         4.15634        -5.82638
LJ          -2.25462         1.76562         1.79007
LJ           3.68735         5.68038         1.27576
LJ           6.33042          1.0725        -5.69276
LJ           1.01144        -4.43468         3.09317
LJ          -2.70002        -2.42733        0.265068
LJ           5.93818         6.44388        -1.66433
LJ          -5.43205         5.81749        -1.23601
LJ          -5.37902       -0.908187        -4.86635
LJ          0.834782         6.19489         1.06425
LJ            1.5077       -0.211695         3.96383
LJ           1.61004         3.87858         -4.0011
LJ            3.5506         6.34026       0.0580416
LJ           5.54906        -1.08331         4.50287
LJ           3.37014        -2.84043        -1.77046
LJ           5.56117         5.25082         1.66788
LJ         -0.612817        -1.31292        -5.20548
LJ          -3.92542         6.30681         5.15824
LJ          -4.34131        -0.27441         1.62557
LJ           -1.3955       -0.793349         5.71975
LJ          -5.87849         4.49335       -0.530222
LJ           5.05053        -2.92156        -2.51546
LJ          0.403986        -4.75108          3.9263
LJ          0.532206        -2.97537        -1.48091
LJ           -3.3593         0.17235         2.35555
LJ           5.34834         4.27292         6.14981
LJ           5.46169        0.616555       -0.472912
LJ          -5.07962        -3.27925        -1.89218
LJ          -3.07281        -0.47363         5.86592
LJ           2.34979        -1.28619          5.2567
LJ            5.2847        0.232886        -1.50711
LJ           -1.6961        -3.70502      -0.0312395
LJ           -2.3491        -5.82332        -3.44624
LJ          -3.03623         4.66479        -2.44395
LJ           3.37448         4.82942       -0.361137
LJ           2.40569         5.85157        -2.08318
LJ          -3.90983         5.18165         5.61681
LJ           3.72611         3.20012          -3.866
LJ          -4.43856         5.06497         -2.0201
LJ           2.53643          -4.464          -0.195
LJ          -4.45973        -6.43954       -0.764408
LJ          -1.32842        0.347468         5.85403
LJ          -2.78558         3.84514         2.39748
LJ          -4.87879         6.16268         5.69278
LJ           4.27195        -6.26838         1.12099
LJ            5.9458         -6.3295         2.26242
LJ           3.09464        -6.18534        -1.92516
LJ           3.40216        -1.76097        -1.04379
LJ           1.42887         2.86042        -3.92884
LJ           5.51758        -1.95789        -2.59766
LJ           1.63381         3.69464         2.94991
LJ          -1.37679        0.894835         1.19002
LJ          -4.03996        -1.31511         2.67508
LJ           6.45097        -3.35193        -2.08826
LJ          -1.59524        -3.61377        -6.37457
LJ          -4.39153        -2.73483        -3.85734
LJ           2.17029        -1.22899        -1.19287
LJ           4.93884         3.52277        -6.02333
LJ          -1.82195        -1.66179         4.63757
LJ          -5.34458        -6.45534        -4.18076
LJ          -2.28476        -4.17279        -5.37184
LJ          0.457187       -0.664264        -4.41699
LJ           4.42701        -1.13567        -3.21739
LJ           3.30069        -0.26839         -1.3449
LJ          -2.41783       -0.860007         5.07176
LJ          0.387393         4.71739         6.39732
LJ          -3.52708       -0.383946      -0.0149477
LJ          -1.72569        0.815236         2.38716
LJ          -5.44322         3.36175         6.08118
LJ           4.25231        -1.02127        -1.61288
LJ           1.73573         5.33523        -1.49711
LJ          -5.14807         4.02088         4.32835
LJ           6.07801       0.0204265        -2.69653
LJ          -4.03864         4.93068        -5.06532
LJ           1.98391         1.63057         1.23089
LJ          -4.01481        -5.84181        -4.10543
LJ           4.83263        -2.41333        -1.63168
LJ          -1.94746        -1.89116         3.21761
LJ         -0.633894        -4.66537         3.47783
LJ         -0.523928        -4.98107        -5.60824
LJ           6.34048         4.89684        -1.19353
LJ          -2.75876        0.449138         1.51548
LJ           2.70193        0.391881      -0.0843153
LJ           3.89677         1.05378        -3.50041
LJ          -1.47997        0.178128        0.293874
LJ          -5.98316         3.05715         1.36193
LJ           4.49054         3.34393         2.01934
LJ           -2.0459        -3.83763         -1.7079
LJ          -5.77356         1.38018        -6.36694
