108
#Comment!
LJ            1.5044         2.38003        -4.49934
LJ          -5.88575        0.628445        -4.79745
LJ           6.36277        -0.26951       0.0392568
LJ           3.07057         5.68899        -5.88867
LJ           3.20291       -0.442742         -1.8749
LJ           6.44118         3.25681         1.35765
LJ         -0.495586        -1.93736        0.854585
LJ           1.35603       -0.311363        -3.79795
LJ          -3.86321        -5.59199         5.81456
LJ          -1.07665        -4.31366        -5.10283
LJ           1.90378         4.02831        -5.50982
LJ          -5.96546         6.29564        -1.49571
LJ           5.08128        -1.48441      -0.0251833
LJ          0.741665         5.92682        -4.98502
LJ        -0.0179803         4.46851        -2.78033
LJ           -4.6166         2.38204         1.81463
LJ           4.57774         -1.3506        -4.53464
LJ        -0.0583706        -1.75231         5.89147
LJ          -3.05264       -0.949581        -2.05087
LJ           4.03244        -0.85908         1.35609
LJ         -0.734683        -3.21809        -4.30655
LJ           2.12919        -3.96831         4.73193
LJ           4.51473         2.70291         2.87144
LJ          -3.29581         3.22101         3.74011
LJ          -5.84044        0.460676         3.62381
LJ          -5.70147        -1.44773         4.74776
LJ          -6.14187        -2.40754         5.29115
LJ          -3.13432         3.40678         4.79877
LJ           3.20172         2.11979         4.35413
LJ           2.62965          5.6423        0.679369
LJ          0.540542         5.31745        -4.28343
LJ           2.54979         -4.0477         5.87338
LJ           5.30304         2.10453         6.04911
LJ         -0.840156         5.78971        -4.77688
LJ            5.2817        -1.77578         5.02639
LJ           3.54816       -0.593015       -0.100436
LJ          -2.74972         5.86974         5.34717
LJ          0.373988       -0.921988          1.1684
LJ           -1.9908         1.17973         1.30431
LJ          -5.55323         1.15046        -1.03573
LJ           2.80457        -1.30414       -0.986354
LJ           -6.0682        -2.57786         6.45602
LJ           -5.2491         3.58311       0.0217848
LJ          -1.30388        -2.92493         1.05628
LJ          0.899236        -2.49198        0.380778
LJ          -4.88396         1.97115          3.3542
LJ           4.03453       -0.402047        -2.42097
LJ           -2.6858        -2.66082        -2.09008
LJ           4.94252        -3.60813        -5.03987
LJ           5.46629        0.206236       -0.467936
LJ          -5.41769         0.50607         2.75814
LJ           1.33899         2.01967        -6.03344
LJ           4.79119       -0.324652         4.04255
LJ           6.03789         1.36133       -0.244078
LJ          -1.26025         3.95549        -2.60128
LJ          -1.15724        -3.03733         6.03815
LJ          -2.74368        0.264951        -3.64636
LJ          -6.05111         1.59172        -3.87677
LJ          -4.33756        -5.36652         2.31915
LJ           5.85324       -0.937929       -0.571383
LJ          -4.77789        -4.87451          5.1735
LJ          -2.17013         5.07587         6.40291
LJ           4.65088        -2.29273        -3.16513
LJ           -4.4202        0.963175        0.950693
LJ          -3.91968          3.6245        0.332455
LJ           1.93168        -6.16537         4.64181
LJ          -3.72824       -0.908474        -1.02364
LJ           2.39436         1.88608         2.14439
LJ           3.00823        -2.55279        -1.19692
LJ           3.01858         3.55136           2.428
LJ          -1.71172        0.963538         2.71232
LJ           1.37545        -1.44141        0.123269
LJ          -1.80113        -2.85773      -0.0407917
LJ          -1.63836        -1.83661        0.842934
LJ          -5.19188         4.21399         4.51124
LJ          -6.20599         4.85646        0.942975
LJ          -2.25085         6.33018        -4.55221
LJ          -1.86391        -2.46219         2.45388
LJ           1.67801         6.24925        -5.51554
LJ         -0.808525        -3.52751         2.04457
LJ          0.295053         0.90092         4.44483
LJ           3.72788        -2.56243        -2.03136
LJ           1.74923        -1.84772        -1.60094
LJ         -0.787146        -2.33204         1.98875
LJ           6.35277         -4.8608        -2.96002
LJ          -5.85997        0.848575          1.5468
LJ          0.853924        0.805651         2.08003
LJ         -0.716845       -0.577995        -2.44464
LJ           4.66471         -1.1093       -0.959983
LJ         0.0506666        -4.46257         5.42841
LJ           2.79294        -4.40169         4.00069
LJ           6.28072         0.65189       -0.877108
LJ           2.06937         2.18323        -2.16412
LJ           3.12726         3.82267        0.101344
LJ          -6.45673         3.93167       -0.966172
LJ           4.01979        -1.82959       -0.665833
LJ          -5.48799        0.846711        0.259094
LJ          -4.75198         3.71565        -1.01762
LJ         -0.739195        -2.44743        -1.40121
LJ          -4.48048         3.43598        -2.33523
LJ          -1.02326        0.740808         1.80455
LJ           1.84989        -2.61993       -0.104441
LJ           1.63507       -0.635402         5.15629
LJ         -0.435082          1.1971        0.974553
LJ            4.2411        0.489276         1.92672
LJ           4.01346         1.58971         1.59371
LJ           5.25915        0.204243         -2.7567
LJ           4.30781         1.64294         2.67376
