108
#Comment!
LJ          0.933506         1.61115        -4.33939
LJ          -6.08151        0.465755        -5.17312
LJ           6.32447       -0.226581      -0.0136017
LJ           3.54179         5.36056         -5.2385
LJ           4.08643         0.24776        -1.18444
LJ           6.46092         2.53874         1.20257
LJ         -0.676897        -1.72426         1.04132
LJ           1.65794       -0.443564        -3.81659
LJ          -3.65467        -6.16968         5.40014
LJ          -1.66881        -4.30544        -5.05511
LJ           1.64664         3.76643        -5.56967
LJ          -5.51314         6.01552        -1.47172
LJ           4.14487        -1.60705      -0.0110492
LJ          0.391177         6.45713        -5.33604
LJ          -0.13887         4.98081        -3.21431
LJ          -4.64874         1.81133          2.1072
LJ           5.24423        -1.36762         -4.5621
LJ        0.00234879        -1.71061         5.70847
LJ          -2.96561       -0.962227        -2.32808
LJ           4.45106        -1.10189         1.74946
LJ          -0.90775        -3.41411        -4.58113
LJ           2.12785        -4.38125         4.30934
LJ           4.63402         2.93124         2.97079
LJ          -2.83252         3.88913         3.50753
LJ          -5.78799        0.523726         3.47238
LJ          -6.07001        -1.70533         4.39864
LJ          -6.29905        -2.75434         4.56917
LJ           -3.4618         2.93508         4.76349
LJ           2.57731         2.10631         4.11325
LJ           1.93883        -6.18563        0.589344
LJ          0.496291         5.11887         -3.9499
LJ           2.78565        -4.52729         5.28953
LJ           5.29829         2.60212         5.80792
LJ          -0.57904         6.29645        -4.63563
LJ           5.95588        -1.10562         4.29714
LJ           3.35854       -0.881946        0.121068
LJ          -2.74654         6.34724         5.75781
LJ          0.205998       -0.787437         1.39916
LJ          -2.13382         0.45334         1.35982
LJ          -5.48729         1.66759       -0.834266
LJ           3.44977        -1.28336        -1.08284
LJ           6.38667        -2.74021         6.30581
LJ          -4.82358          2.9655       -0.434036
LJ          -1.51459        -2.76546         1.60725
LJ          0.877372        -2.37955        0.943111
LJ          -4.77835         1.98367         3.65869
LJ           4.71244       -0.533368        -2.51805
LJ           -2.8835        -2.66088        -2.64101
LJ           4.56058        -3.83429        -5.28482
LJ           4.79138        0.294759       -0.401556
LJ          -4.76069        0.329207         2.07784
LJ          0.802355         2.14308        -5.34348
LJ           5.23922        -1.11781         3.42838
LJ           5.17946         1.29199       0.0957824
LJ          -0.95264         4.25082        -2.57365
LJ          -1.30923        -3.28169         6.10097
LJ          -3.14175        0.650865        -3.28888
LJ          -5.85581         1.86765        -3.84769
LJ          -4.56389        -5.69855         2.67311
LJ           5.09388       -0.721961       -0.358512
LJ          -4.64291        -4.37516          5.2593
LJ          -2.31812         5.43967         5.99241
LJ           4.82467        -1.45965        -3.60673
LJ          -4.68302        0.950219         1.34439
LJ          -4.33205          3.8295        0.186904
LJ           2.32162           -5.79         5.24891
LJ          -3.94573       -0.135262       -0.704447
LJ           2.60405         2.15768         2.50468
LJ           2.82631        -2.15771        -1.40523
LJ           3.39944          3.2636         2.51054
LJ          -1.62667        0.848088         2.72477
LJ            1.4252        -1.25309       0.0340163
LJ          -1.95702        -2.86443       -0.358162
LJ          -1.66456        -2.08841        0.269994
LJ          -5.39774         4.55553         4.57747
LJ            6.2739         4.16762         1.07096
LJ          -1.31534         6.21174        -3.76168
LJ          -1.60063        -2.49921         2.73008
LJ           2.21512         6.21393        -5.43707
LJ          -1.31131        -3.55002           2.322
LJ          0.260299        0.232011         4.60558
LJ           3.78581        -2.90054        -1.97231
LJ           1.98345         -1.5987        -1.49071
LJ         -0.806144        -2.08584         2.06227
LJ           6.03068        -5.04473        -3.24577
LJ          -5.56339         1.25689         1.91013
LJ          0.736801        0.807238         2.34077
LJ         -0.597286       -0.557336        -2.72769
LJ             4.559        -1.36539        -1.37899
LJ          0.115899        -5.00124         5.81503
LJ           3.33122        -5.00627         4.28885
LJ           6.28764        0.393583       -0.950054
LJ           2.31847         2.56811         -2.3459
LJ           3.07955          3.5467      0.00428087
LJ          -5.97292         4.04856         -1.1785
LJ           3.85997        -2.33546        -1.02835
LJ          -5.68628         0.82863        0.495487
LJ           -5.0234         4.18606        -1.39853
LJ         -0.943096        -2.44875       -0.728302
LJ          -4.60617         3.49713        -2.27665
LJ         -0.850811        0.980319         1.81178
LJ           1.88602        -2.26281       -0.140066
LJ           1.84346       -0.502214         5.50053
LJ         -0.392339         1.33566        0.664086
LJ           4.27504        0.607853         1.96343
LJ           4.13322          1.5936         1.48313
LJ           5.75486      -0.0488844        -2.76599
LJ           4.30265         1.67627         2.68515
