108
#Comment!
LJ         -0.619833         4.21606        -0.65175
LJ           1.92106        0.195195         1.23404
LJ          -6.34296         6.04647         1.43696
LJ           3.07722        -5.70627       -0.477027
LJ           4.95212       -0.676347        -3.05035
LJ          -3.14008         4.68705         5.59434
LJ          0.532754         5.66401        -3.19864
LJ          -6.38297        0.552583        -5.02701
LJ          -4.23902         3.08979         3.84011
LJ          -6.04501        -5.26981        0.987058
LJ           5.16552         4.41346        -4.80914
LJ           6.31667         3.57827         2.33362
LJ          -5.71375         6.29573         4.64097
LJ          0.459368        -4.99303        0.314691
LJ           4.67447        -1.69187        -3.16966
LJ          0.801174       -0.625589         1.64799
LJ           3.48068        0.829573        0.862895
LJ          -5.93337         -2.0233         5.99803
LJ           1.72285       -0.559993         5.90371
LJ          -1.36871        0.844547        -6.39823
LJ            3.6382        -4.72965        -4.62153
LJ           2.15239        -3.93437         6.39543
LJ          -3.26777         -4.7497       -0.540605
LJ           3.96984        -5.84916        -3.32463
LJ          -5.64366         4.95002        -3.34059
LJ            3.2161        0.994384        -1.28928
LJ           -4.5706        -6.44933          5.8459
LJ           3.90358          1.5802         6.05885
LJ           1.52303        -4.87345         -6.2479
LJ           1.15805        -1.20095         2.10097
LJ          -2.18357         2.45688         2.21053
LJ           3.37983       -0.152121        -6.21801
LJ           1.49236        0.904494         2.37241
LJ          -4.88429        -3.45765        -2.30688
LJ            2.8965         5.87663        0.959064
LJ           4.69728         5.37418         2.69805
LJ         -0.865634        -2.34568        -5.89124
LJ           1.60922         3.78254        -5.48172
LJ           1.30905         5.79012        0.213774
LJ         0.0217525        -4.18329         4.80566
LJ          -5.93692         6.00183         5.96965
LJ          -4.82341        -3.41284         2.50044
LJ           2.04779          1.2644          6.0382
LJ          0.657703        -2.02097         5.33674
LJ          -6.00908         6.25365        -1.53827
LJ           2.22051        -6.38377         5.11238
LJ          -4.43028         3.42071         2.06501
LJ           5.63954        -1.99376         1.87514
LJ           4.20603         4.64682       -0.982299
LJ           5.11593       -0.401471        -4.27979
LJ          -1.04053         1.77048        -5.52414
LJ           2.13605         2.26953        -4.63794
LJ           3.44854        -2.33971         -5.9452
LJ          -0.78824        -2.69149            4.88
LJ           3.57363        -4.06676          -6.419
LJ           4.36743        -3.90787        -1.83866
LJ          -5.12549        -2.38031         6.06755
LJ           4.28781         -6.3238         3.71183
LJ          -6.00047         5.98478        -5.60359
LJ           -5.1107        -4.53137          3.1055
LJ          0.963099         0.15825        0.132098
LJ          -3.86017        -6.35847        -1.96595
LJ           5.16768        -1.89021       -0.712783
LJ           3.48762         2.14052         4.99727
LJ           5.44774         2.60209        -5.83418
LJ          -1.81934         3.98866       -0.309626
LJ          0.300509        -6.23406        -3.85759
LJ           -2.0523        -4.84205          3.7937
LJ           2.36293         6.02306        -6.11802
LJ          -2.25037        0.243607        -3.88602
LJ          -4.91067        -3.19052        -5.98546
LJ         -0.527761        -4.13612         2.44733
LJ           3.99599       -0.840058        -5.13052
LJ           4.17502        -3.05327         3.29417
LJ        0.00945331         1.20407        -2.89574
LJ           5.74353        -4.75397        -6.15216
LJ          0.508649       -0.196523          2.2905
LJ          0.482719        -1.57341       -0.358681
LJ           6.28398         4.48252       -0.962551
LJ           3.22859        -5.94695          1.7397
LJ          -4.38109         5.24037         -3.0204
LJ          -4.42733         4.36891         2.45252
LJ          -5.63083        -2.27862        0.272564
LJ          -5.99121        -6.16858        -2.80589
LJ          -2.75645         1.07141         3.42846
LJ           1.18158         1.43586         5.33137
LJ           2.21314       -0.602704        -2.04752
LJ          0.615892         3.20093        -1.20832
LJ           3.67819         4.62075        -3.46545
LJ           2.83515        0.951616          2.5047
LJ          -4.82327       -0.206919       -0.987093
LJ           3.16077          2.2449        -5.30058
LJ           2.10402        -5.85043        -5.37341
LJ          -5.51821        -2.69233         5.57618
LJ           3.66673       -0.209755         3.56767
LJ          -1.18295        -1.68526        -2.13725
LJ           2.03395        -4.77207         4.40115
LJ           3.91989        -4.43139         1.18843
LJ          -2.33939        0.450169        -3.47352
LJ           4.53308       -0.558047        -3.93847
LJ         -0.876951         -2.8764         6.28448
LJ            3.3797         1.58749         1.23919
LJ          -1.47367         5.47649        -3.18549
LJ           5.01901        -2.10658         3.96097
LJ          -4.10437        -4.60056        -5.03403
LJ           2.52136         0.83269        -1.73821
LJ         -0.648716        -2.33861        -1.66169
LJ           3.55072        -5.43226         -5.8081
