108
#Comment!
LJ          -4.08992        -4.03788        -3.29575
LJ          -2.24365        -1.63789        -3.26913
LJ          -3.05736         -1.9503        -2.51976
LJ         -0.748078        -4.55523        -1.10929
LJ          -0.29661        -3.35999         -3.0517
LJ           1.30936        -2.75109        -4.56672
LJ          -1.49448         -1.8958        -1.22315
LJ         -0.235268        -2.09824        -2.28393
LJ           3.17724        -2.94704        -3.92462
LJ           1.00309        -2.41446          -2.564
LJ           1.09476        -4.12967        -3.60218
LJ           1.56076        -3.37754        -1.44617
LJ          -3.78664        -1.08115        -1.46041
LJ          -1.92354        0.100791        -3.52355
LJ          -2.47553         1.20016        -1.66224
LJ          -2.87761        -2.65783        -1.17617
LJ          0.185935       -0.485276        -2.55766
LJ         -0.287282        -1.12228        -3.69072
LJ         -0.633389       -0.217372         -1.6793
LJ          0.917838       -0.934692        -1.82745
LJ           1.35418        -1.23579        -3.01263
LJ           1.20668        0.287247        -2.63607
LJ           1.93339       -0.017762         -1.1689
LJ           3.70595       -0.693986         -1.2649
LJ          -3.85041         0.73546        -4.15523
LJ            -3.881         1.83326        -3.24328
LJ          -3.28392         1.01383        -2.82135
LJ          -1.31033        0.786883        -2.76916
LJ          -2.70778          1.3607        -4.73801
LJ          -1.61282         1.87084          -3.965
LJ          -2.11188         2.14027        -3.04354
LJ         -0.258408         1.03631        -2.63166
LJ          0.351803        0.146571        -1.61873
LJ          0.737786         1.63505        -3.37313
LJ         -0.115834         2.40301         -2.0725
LJ           2.23471         1.50861        -2.17808
LJ          -2.16147        -4.45173        0.318706
LJ            -1.546        -3.10795        -1.46448
LJ          -3.45936        -4.43011       0.0997783
LJ          -1.60397        -1.47812        0.141674
LJ          0.339934        -3.08386        -1.00699
LJ         -0.719331         -1.2032        -2.25663
LJ          -2.49393        -1.38732       -0.785071
LJ         0.0439124        -2.38752      0.00608533
LJ          0.531878        -1.87057        -1.24271
LJ           4.15563        -1.00452        -0.01822
LJ           1.73357        -1.85305       -0.722434
LJ          0.461095        -3.08043        0.752978
LJ          -3.64174       -0.209736        -2.34892
LJ           -1.8551        0.499893        -1.11553
LJ          -4.98169        0.863624        0.372409
LJ          -4.00519       -0.915285       -0.407034
LJ          0.654438        -2.68165        -3.50101
LJ           -1.0829         1.09244        -1.04914
LJ          -0.64792       -0.247619        0.169006
LJ          0.105001        -1.15906        0.555371
LJ           3.87322        -1.88909       -0.550405
LJ           2.69869        0.736255        -1.58673
LJ         -0.607147         -1.1076       -0.773831
LJ          0.603599        -1.00413       -0.574572
LJ          -3.39265         2.13071       0.0810564
LJ          -1.51596         1.97168        -1.58531
LJ           -5.1229         3.55296       -0.370928
LJ          -2.76564        -0.38784       -0.232725
LJ          -1.58615        0.370468       0.0224544
LJ       -0.00219987         2.79601        -1.00256
LJ           -1.7039         1.94084       -0.427769
LJ          0.304396         2.05573       -0.063934
LJ            0.8446        0.719529       -0.700671
LJ           0.88024         3.83788        -0.11799
LJ          0.499633         1.21148         1.04799
LJ           1.69307         2.70035        -0.27742
LJ          -2.20688        -2.33898        0.738215
LJ          -2.13423        -1.82449          1.8067
LJ          -2.69714       -0.624529         3.11711
LJ          -2.60228        -4.03948         1.28787
LJ          0.720184        -4.25858         2.68976
LJ             -1.21        -2.81014        0.866434
LJ         0.0160348       -0.370736         3.20402
LJ          0.777784        -2.84965         1.96647
LJ           0.81045        -4.28544         1.39415
LJ           2.61293        -2.06593       0.0690749
LJ           1.71629        -2.65674         1.15041
LJ           1.66981        -3.84352         1.81807
LJ          -3.01645        -1.51455        0.386415
LJ          -3.72111        0.315534        0.265383
LJ          -1.95264         1.07851         1.50505
LJ          -2.50335       -0.750523         1.26929
LJ          -2.50687        0.362407        0.662705
LJ          -0.65105       -0.703553         1.90319
LJ          -1.65146       -0.729985         2.47587
LJ           1.48243        -1.17496         4.23364
LJ          0.922057        -1.96837        0.403249
LJ           2.62645         1.29809       -0.418044
LJ           2.03639         1.52287         2.36527
LJ           1.78764       -0.411015        0.486713
LJ          -2.66356          1.3818        0.198038
LJ          -2.17435         2.37694        0.886138
LJ          -1.63259        0.441554         3.48128
LJ          -1.57969          1.4431        0.630156
LJ         -0.306018        0.262314          1.0238
LJ          0.398358         2.91222        0.795387
LJ         -0.477462         1.81645          2.9885
LJ         -0.716497        0.294569         3.21852
LJ           2.01878         1.51943        0.953642
LJ           2.91753        0.894153         1.43015
LJ          0.604973         0.37757         3.30745
LJ           3.09632        0.756776         3.01179
