108
#Comment!
LJ           2.14936        -1.79937         -3.8253
LJ           6.45657         -2.7214         5.32679
LJ          -5.64692         2.33139        -5.59602
LJ          -2.12262         2.49999        -4.86436
LJ           1.84187       -0.427703        -1.61427
LJ          -1.75483         -1.5028        -1.64339
LJ         -0.375498          5.0198         5.90596
LJ          0.425688        -5.42259        -5.89892
LJ          0.417009         3.24032         2.65178
LJ          0.762982        -2.60068         5.22622
LJ          -1.70768        0.828462        -4.41309
LJ          -6.21207         3.64287        -5.99378
LJ          0.198961         5.13056         5.10487
LJ           2.88411         2.55081       -0.141197
LJ           2.77375         3.82542        -5.10162
LJ           4.00785        -6.04619       -0.362271
LJ           -1.0002        -6.12268        -3.76755
LJ          -5.14951         -1.9233        -3.04352
LJ           1.86778        -4.24263        -1.79723
LJ          -4.14057         4.81442         1.01479
LJ          -5.70631         4.31909        -3.75228
LJ          -2.63448         6.12012        -2.33084
LJ           6.15966        -3.43405        -3.24128
LJ          0.772087         1.38421         5.47656
LJ           6.45998         2.86349        0.191967
LJ          -5.43028         1.49475         3.73013
LJ           6.37389         1.94344         3.98625
LJ           1.99025         5.90543         4.27018
LJ           6.41937        -1.49391         2.13655
LJ          -5.41405         1.04723         4.11777
LJ          -4.06949        -2.44132         2.68906
LJ           0.24803         4.12838         1.70161
LJ         0.0208192        -1.85911        -6.04641
LJ           6.27045         2.90768         2.55108
LJ          -1.63893        -5.75729       -0.594292
LJ           4.25134         5.83094          2.6847
LJ          -2.88633          1.1176         3.30419
LJ           5.45494         2.75487         3.56064
LJ          -1.31196         -1.3302         4.61631
LJ           2.82512        -4.32665       -0.294006
LJ         -0.440111         5.29991         1.76088
LJ          -4.26324         2.72335         1.94444
LJ             2.943        -4.48406         6.24856
LJ          -6.19767        -2.36564        -6.02828
LJ          -5.99594       -0.521102         5.08186
LJ          -4.38646         3.28003        -4.80041
LJ           -2.7779        0.988204        -5.19569
LJ           3.42013        0.903455         4.24146
LJ           3.11547        -5.57176        -4.07012
LJ          0.734535       -0.537497         2.42876
LJ           1.83159        -4.85688          5.3072
LJ         -0.879653       -0.706653         3.81784
LJ           3.28666         3.17757        -2.51005
LJ          -4.22234        -2.58981        -4.07314
LJ           5.37741        -5.60793         4.43923
LJ           3.82599         2.10009         6.42698
LJ          0.990787         1.63195        0.885477
LJ           2.01509        -5.92229        -5.07118
LJ           -5.9713        -3.91622        -5.65352
LJ         -0.693831        -2.34444        -4.17142
LJ          0.190254        -2.26335        -1.90184
LJ           5.61103        0.626032        -4.92016
LJ            1.1112         -2.7123        0.711878
LJ           3.89753        0.645754         1.16229
LJ           1.20645        -2.02939         5.64442
LJ          -5.91818         1.84641        -5.54387
LJ           2.58947        -6.11355        -3.69139
LJ          -5.10667          1.2705        -1.19448
LJ           1.58771        0.961719        -3.20234
LJ           2.01637        -5.31805        -6.16042
LJ           2.25251        -3.90996         1.53573
LJ          -5.09269         -4.8767        -1.78685
LJ          -3.69572          5.9971         6.20941
LJ         -0.549578        -3.55394        -3.43208
LJ           2.57533       0.0614778        -3.41589
LJ           4.20183         1.45737        -4.64479
LJ          -1.59409        -2.55615         1.85005
LJ          -2.33761         1.69162         4.52473
LJ          0.539242         3.33913        -3.57285
LJ          -5.52203        0.777872        0.309129
LJ           1.32484        -6.11447        -4.17663
LJ           -5.8753        0.952153         5.01762
LJ          -5.82022         4.96115         6.13137
LJ           3.68368        -3.69489         4.41797
LJ          -4.39742         2.79682         3.68649
LJ           4.79257        -4.68218         4.25117
LJ           3.57011        -3.84235         5.84493
LJ          -6.34596        -2.70262         3.06801
LJ           1.30662        0.870761         4.21497
LJ          -3.04042         1.83947         6.22269
LJ            1.2284        -4.59204         5.78141
LJ           5.81081        0.624482         2.20438
LJ          -5.35597        -3.78296         -4.5828
LJ           5.43489         3.37389        -1.63651
LJ           1.90124        -3.08361         1.78063
LJ         -0.351244         3.59988        -3.50006
LJ         -0.400461         6.21925          3.9212
LJ           3.56229         4.23338         6.16872
LJ          -5.69902         5.20504          5.1291
LJ           5.38912        -5.20284        -4.97975
LJ         -0.421321        -5.60615        -4.58037
LJ          -6.29341        -5.55796       -0.671864
LJ          -1.93128         1.39799        -5.02613
LJ         -0.506571       -0.296867         -4.1435
LJ         0.0388448        -3.97306          1.0443
LJ          -6.33055        -4.16064         2.52784
LJ          0.860853        -2.22576        -2.59537
LJ          -5.60378      -0.0622542         -1.4473
