108
#Comment!
LJ         -0.163506         5.43511         3.00195
LJ          -5.61154         2.60236        -6.41801
LJ          -6.07895        0.923854        -5.37256
LJ          -3.24852        -2.55817        -5.99144
LJ           1.20052         4.68707        -4.70366
LJ           1.50563         5.47645        0.390921
LJ          -6.32976        0.719906         3.39022
LJ         -0.835901         5.76349        -1.30161
LJ            1.9216         1.99571         -6.2879
LJ           3.99803         2.08909         1.32814
LJ           5.81326        0.928473        -5.19632
LJ          -2.29852         1.06719        -4.50577
LJ          -4.48171        -4.13294         4.15582
LJ            5.7832         5.58276         6.07202
LJ          -5.65653        -2.53915         4.37107
LJ          0.959587        -2.82898         1.66199
LJ           3.69987         5.57073        -3.52473
LJ          -3.94909         6.42706         3.85122
LJ          -4.44528          4.8602        -6.18074
LJ           3.16111         -4.8375        -4.33433
LJ          -5.10676         -1.8169        -4.27051
LJ           6.44546         2.10126         4.65347
LJ           1.28994         1.76947         5.62074
LJ          -1.06586        0.609904         4.31934
LJ           -5.8823        0.994882         4.91272
LJ          -2.84767        -5.92758        -1.79955
LJ           5.19164        -5.55124        -3.76151
LJ          -4.08108          -1.259        -1.91927
LJ          -1.70805        -1.05528         5.13677
LJ           3.96626       -0.469907        -3.23383
LJ          -4.05474      -0.0719082         5.32836
LJ          -5.70328       -0.204576        -3.30276
LJ           2.20526         3.71919         5.63346
LJ          -2.07926         -2.4747         2.85732
LJ          -5.78571         -2.2801        -6.32392
LJ          -2.62995         1.43616        -3.67925
LJ           -1.5072         2.41007        -2.63239
LJ           -2.6333         5.11256       0.0232846
LJ          0.957587        0.415192         3.26376
LJ          0.400481         2.98699       -0.287777
LJ          -2.85411        -2.39349        -1.58186
LJ           5.04403        -3.61115        -4.26229
LJ           6.33713         2.43684        -2.57623
LJ           4.10586         4.84507         1.19046
LJ          -2.55441         -5.2079         3.36733
LJ           4.16371        -5.40184           2.077
LJ          -3.27206        -3.68911       -0.246321
LJ         -0.347954         5.10287         -3.0034
LJ          0.817137         4.17144        -2.84571
LJ           3.03653        -3.91734         3.94808
LJ          -1.69681          5.5029        -5.50951
LJ           -1.0402        -5.80346         3.28366
LJ          -1.49379         2.66846       -0.283661
LJ          -1.37781         4.91727        -1.11729
LJ           4.67781       -0.143981         6.22099
LJ         -0.983803        -3.16212        0.410951
LJ          -4.75122         1.69239       -0.714294
LJ           2.84099        -6.08863        -2.41233
LJ           2.33409        -6.27682        -6.27482
LJ           4.82014        -4.60911         1.16958
LJ           6.18871         2.90673         -3.3424
LJ            5.3008        -6.43978        -3.77594
LJ          0.866221         3.53035           1.187
LJ          -4.96229         6.29859         3.77892
LJ          -5.31622        -1.30386         1.19639
LJ         -0.225076         2.89455         3.32616
LJ          -1.48119         3.47549        -3.94788
LJ          -5.26971       -0.492683       -0.770904
LJ          0.318436        -2.06823         6.14822
LJ          0.139726        -1.39768        0.124567
LJ          -5.15632        0.896502        -4.33015
LJ            4.6102         3.36727        0.698141
LJ          -1.65665         1.15534        -5.11923
LJ          -4.96322        -6.33266        -3.99234
LJ         -0.841278         3.84032         6.27709
LJ           3.23691         3.15805         5.28633
LJ          -2.96499        -4.71399         5.49996
LJ           3.71226        0.223483        -5.51427
LJ           5.07043         3.36687       -0.869683
LJ            4.8048        -3.35161        -3.49064
LJ           3.49192         2.67134        -1.58041
LJ          -4.95937         3.90176        -5.56683
LJ         -0.965512         -2.4626        -3.20656
LJ          -6.07489        0.510813        -2.38603
LJ          -1.66662       -0.921988         5.04971
LJ         -0.664804        -2.35043         3.29258
LJ           4.56695        -1.38066        -4.69843
LJ          -5.10319         1.30222         1.12777
LJ           6.02397        -1.61251        -2.84618
LJ           1.38738        -0.92326        -1.63546
LJ          -1.91138         6.01828            3.95
LJ           4.12992        0.774818         -3.7987
LJ          -3.39931         3.13855        -0.46207
LJ         -0.123672         5.31656         2.75244
LJ           1.71265        0.369364         5.00185
LJ            5.3697         5.18296        -2.81562
LJ           5.97895        -3.14414        -2.78393
LJ          -4.30322         2.97892        -6.07181
LJ           1.19728         2.64506        0.298309
LJ          -2.67963        -4.70045         -1.4639
LJ           3.57721        -0.33536        -3.17851
LJ          -1.23853        -6.40133        -4.02181
LJ           1.59058        -2.77293         2.56363
LJ           5.87311         4.87118         4.81626
LJ           6.25742         1.33391         -5.0915
LJ           4.37157         5.21386         1.11497
LJ          -6.06221        -3.38043        0.667025
LJ          -1.69724       -0.733625        -2.96434
