108
#Comment!
LJ          -6.16195        -5.77274          0.2942
LJ          -4.92288         6.21316         1.55842
LJ           3.53421        -4.89716        -5.36856
LJ         -0.132326        -3.65032        -1.60104
LJ            3.3323         1.89576         3.29308
LJ          -3.23538        -2.03516         3.10169
LJ           4.41975       -0.750184        -2.19309
LJ           -4.4417         3.96819        -1.44688
LJ           5.81661        -1.73298         4.42644
LJ          -0.85614         2.59506         4.45686
LJ          -1.71625        -2.23202       -0.947163
LJ           3.40196       -0.166102         2.77536
LJ          -2.91281         2.68877        -2.30931
LJ            3.4231        -4.02687        -1.66327
LJ           4.84229         1.68893        -6.21889
LJ           4.45957         5.20013        -3.59638
LJ           1.70293       -0.387317        -3.92718
LJ           3.17221       -0.186338        -4.11368
LJ            2.9138         1.44306         3.61646
LJ           2.69838        -5.18588        -4.69399
LJ           1.55925          1.5991        0.324318
LJ          -4.63439        -2.75987         5.16486
LJ          0.620952        -2.26291        -4.92789
LJ           3.59204        0.917144        -2.82633
LJ            4.9014        0.285395         2.16063
LJ            5.7552        -2.86948       -0.583392
LJ          -6.24904         1.98081         4.58165
LJ          -0.30306         2.84645         1.19714
LJ           6.41914        0.414427        -1.87236
LJ           -4.7429         3.80122         6.19296
LJ           -3.7689         1.00849        -3.51318
LJ          -5.38873        -4.12799        0.925412
LJ          -5.14127        -6.21986        -3.89405
LJ           5.24977        -2.67288        -5.43606
LJ           5.37144        -1.66661         5.81026
LJ           5.35836       -0.272584        -1.02478
LJ           1.27882       -0.363551         6.37909
LJ          -4.83455        -3.99714         2.40022
LJ          0.828457          5.5158         1.16779
LJ          -3.64391          3.4526        -3.51955
LJ          -3.43861         4.11966         5.63872
LJ          -1.30963        -5.38155        -6.30303
LJ           4.18892        0.926459        -1.82915
LJ           2.88492         5.02261          2.5275
LJ           3.72901         2.29368         -2.5456
LJ           1.69231         5.23849        -3.69896
LJ          -6.39102        0.739856         5.75267
LJ           3.94906         5.79769       -0.297757
LJ           1.70672        -4.13244         6.19799
LJ          -0.63619         5.16863        -5.59359
LJ           4.08115        -2.05917        -4.24034
LJ          -2.25969        -4.50864        0.880558
LJ           3.66274        -3.66835       0.0868657
LJ          -4.93291         2.82893        -1.85455
LJ         -0.470068        0.677321         2.39499
LJ           4.12098         1.27304         3.20191
LJ           4.87299          2.0532         1.06682
LJ           3.36254        -1.03126        -2.33822
LJ          -1.89927         3.47192          2.3661
LJ           4.37405         -1.4004       -0.175045
LJ          -5.68301         2.87869         1.03714
LJ          -4.80754         2.26223        -4.32729
LJ          -4.02278        -1.05586         3.90367
LJ          -3.04218      -0.0929752        -3.80396
LJ          -2.94503        -5.27516        -4.73266
LJ         -0.699407         5.62187       -0.720073
LJ          -4.04408          2.3375         5.18916
LJ          -0.34358        -2.32547         2.40968
LJ          -4.08701         6.07645        -1.13173
LJ          -4.23328        -1.77792        -1.50158
LJ          -6.01952         2.80867        -5.54916
LJ          -1.15766         6.02457         6.13262
LJ           0.15869        -2.87968         2.06544
LJ          0.620144        -6.07354         3.32454
LJ        -0.0212525       -0.157693        -4.46594
LJ          -1.74366         6.08433         3.57987
LJ           4.54931        0.770539       -0.540048
LJ         -0.824829         2.41404         -6.2921
LJ          0.930274        -6.43061         2.74667
LJ          -6.34326        -5.70898        -1.29476
LJ          -3.71838        -3.46672        -5.18219
LJ          -3.00376        -5.61284         1.39196
LJ          -1.08315       -0.822517        -3.45492
LJ          -6.15216       -0.921741         4.66826
LJ          -5.82213        0.985885         5.39395
LJ          -5.72982        -5.48501        -5.30003
LJ          -5.88512         1.73214        0.117861
LJ           1.55801         3.89641          3.8119
LJ           3.51124         2.20106         4.56582
LJ        -0.0434563         2.50828        0.560708
LJ           2.44455         4.10371        -2.74478
LJ           5.23372        -5.75694         4.34008
LJ          -3.00007        -2.73793     -0.00695137
LJ           4.17625         1.50126        -3.62117
LJ          0.232676         2.33988       -0.476604
LJ          -6.11769         -0.4859         5.86404
LJ           5.93023         3.59852         2.37257
LJ           5.63209         1.12379        -3.98487
LJ          0.813889        0.849518        -1.90777
LJ          -3.82057          3.1439        0.904504
LJ         -0.808793         -4.7676         3.14035
LJ         -0.401812        -6.11641       0.0663322
LJ          -6.43907        -2.05346         4.37332
LJ            1.1812         4.44176        0.893658
LJ          -1.55007          -6.214         3.71016
LJ            6.0307         2.58746         5.84342
LJ          0.739963         4.44467         6.10222
LJ           5.72604        -5.35366         -6.1273
