108
#Comment!
LJ           1.60236         2.50113        -4.50681
LJ           -5.8542          0.6633        -4.72716
LJ           6.37192       -0.254657       0.0738098
LJ           2.98347         5.74663        -5.99574
LJ           3.04924       -0.493278        -1.99387
LJ            6.4406         3.37972         1.38111
LJ         -0.477591        -1.98469        0.843056
LJ           1.30567       -0.289227        -3.79435
LJ           -3.9168        -5.48362         5.87491
LJ         -0.972105         -4.3025        -5.10325
LJ           1.94587         4.07178        -5.49899
LJ          -6.04091         6.34151        -1.49965
LJ           5.22048        -1.46226       -0.034101
LJ          0.823102         5.91315        -5.01275
LJ        -0.0133118          4.3777        -2.70679
LJ          -4.61696          2.4635         1.76587
LJ           4.46611        -1.35245         -4.5205
LJ        -0.0698863         -1.7614           5.922
LJ          -3.07246       -0.948745        -1.99579
LJ           3.96308       -0.809704         1.28373
LJ         -0.711651        -3.19786        -4.26945
LJ           2.10643        -3.89292         4.78675
LJ           4.48627         2.65778         2.84916
LJ           -3.3763          3.1083         3.72784
LJ          -5.90328        0.447916         3.75798
LJ          -5.62476        -1.42596         4.81271
LJ          -6.11666         -2.3351         5.41871
LJ          -3.07838         3.48656         4.85526
LJ           3.30689         2.12218         4.39104
LJ           2.74504         5.45833        0.694209
LJ          0.516566         5.27522        -4.25197
LJ            2.5256        -3.97415         5.99102
LJ           5.30377         2.02151         6.08912
LJ         -0.861014         5.70435        -4.80996
LJ            5.1508         -1.8772         5.14259
LJ            3.5897       -0.565975       -0.160781
LJ          -2.73183         5.77422         5.29275
LJ          0.394627       -0.960007         1.12168
LJ          -2.00663         1.30694          1.2818
LJ          -5.57935         1.05322        -1.05014
LJ           2.67918        -1.41311         -0.9165
LJ          -5.98998        -2.54883        -6.46064
LJ          -5.33012         3.67028        0.136903
LJ          -1.26593        -2.93093         0.96609
LJ           0.83114        -2.48416        0.326679
LJ          -4.90267         1.96499         3.29476
LJ           3.98479       -0.376306        -2.43061
LJ          -2.65245        -2.65648        -1.99694
LJ           5.00634        -3.56965        -4.99871
LJ           5.52266        0.155193       -0.439092
LJ          -5.47758        0.545214         2.75566
LJ           1.42644         2.00826        -6.16764
LJ            4.7211       -0.196817         4.14985
LJ           6.16463           1.404       -0.255221
LJ          -1.29608         3.91442        -2.61057
LJ           -1.1288        -2.99569         6.02798
LJ          -2.67735         0.19921        -3.70439
LJ          -6.08299         1.53764         -3.8886
LJ          -4.29982        -5.31118         2.26033
LJ           5.98369       -0.968992       -0.607403
LJ          -4.79316        -4.96428         5.16369
LJ          -2.15226         5.02583          6.4619
LJ           4.61825        -2.42532        -3.09332
LJ          -4.40331        0.978376        0.876974
LJ           -3.8642         3.59068        0.349654
LJ           1.86825        -6.22265         4.54016
LJ          -3.68553        -1.03855        -1.08692
LJ            2.3668         1.84355          2.0852
LJ           3.01586         -2.5853        -1.14321
LJ           2.95858         3.59034          2.4151
LJ          -1.73754        0.983908         2.71095
LJ            1.3663        -1.50559        0.140631
LJ          -1.76099        -2.84096       0.0290947
LJ          -1.61459         -1.8227        0.945011
LJ          -5.15652         4.15639         4.49995
LJ          -6.13079         4.96431        0.920765
LJ          -2.41268         6.34841        -4.67531
LJ            -1.885        -2.46528          2.3845
LJ           1.58838         6.25072        -5.52823
LJ         -0.735262         -3.4882         1.98702
LJ          0.301682         1.01161         4.41788
LJ           3.73414        -2.49531        -2.04489
LJ           1.73288        -1.89127        -1.60292
LJ         -0.793297        -2.38073         1.95844
LJ           6.40642        -4.83024        -2.91228
LJ          -5.88646        0.776962         1.47873
LJ          0.869773        0.805462         2.03378
LJ         -0.737091       -0.582163        -2.39712
LJ           4.68855        -1.01542       -0.930879
LJ         0.0398399        -4.37167         5.36437
LJ           2.70841        -4.30647         3.94921
LJ           6.37927         0.68511       -0.958729
LJ           2.02779         2.11895        -2.13412
LJ           3.13509         3.86903        0.118371
LJ           6.39602         3.90871       -0.925028
LJ            3.9991        -1.77454       -0.588189
LJ          -5.45707         0.85144        0.225369
LJ          -4.68854          3.6496         -1.0041
LJ         -0.712121        -2.44823        -1.50588
LJ          -4.46465         3.43066        -2.32829
LJ          -0.98666        0.696543         1.80513
LJ           1.91285        -2.66274       -0.148141
LJ            1.5988       -0.657281         5.09865
LJ         -0.451195         1.16826          1.0394
LJ           4.23379        0.484345         1.92421
LJ            3.9846         1.58126         1.57977
LJ           5.16201        0.238554        -2.74928
LJ           4.31568         1.63209         2.70246
