108
#Comment!
LJ          -2.95034         3.23655        0.576875
LJ         -0.682604         5.78724        -5.75307
LJ           1.71219        -4.92044         1.14646
LJ         -0.563037         2.59166        -5.24696
LJ         -0.112714        0.703395         4.50762
LJ          -6.15918       -0.876919        -2.49949
LJ          -5.16156        -4.73171         5.70443
LJ          -1.26222        -5.21859      0.00647099
LJ           4.98437        -5.97131        0.437167
LJ           5.43968        -3.20161         1.18882
LJ         -0.159187       -0.249591        -4.54045
LJ           1.29134        -6.27378        -4.67921
LJ           2.63683         1.35061       -0.546273
LJ          -5.27304         4.74064         2.60964
LJ           -2.2324       -0.525152            1.66
LJ          -3.44455         5.41431          2.8462
LJ          -4.39295         5.17362         6.05095
LJ           1.34799         2.74537        -5.69005
LJ          -4.97169        -2.48687        -5.18398
LJ           1.26784         5.28566        -3.09567
LJ           4.55844        -1.94299         3.91409
LJ          -1.68606       -0.848735         4.91157
LJ           3.11704         5.32721        0.536176
LJ          -5.98274         4.36069         4.35618
LJ           2.12182       -0.544526         2.41682
LJ          -3.26801        -2.06264         5.87536
LJ          -2.03159         5.71048        -5.75064
LJ          0.863971        -1.41472         2.59958
LJ           6.31276         5.99019       0.0517992
LJ           5.13637       -0.346375         2.80593
LJ           6.17826        -4.42535        -2.33533
LJ            6.4408         6.02965        -6.40071
LJ          -4.77354         1.84284        -1.85541
LJ          -3.36959        -4.12597        -1.17561
LJ          -4.53259         -3.5399       -0.816731
LJ         -0.236557        -1.26963         -1.7979
LJ           -6.1176         4.57386        -6.11466
LJ          -4.63477        -3.59235          1.5159
LJ           5.23348         5.91046       -0.444214
LJ           5.95063         6.20625         1.96671
LJ          -4.85436        -4.04191         -6.2268
LJ          -2.78077         3.83434         4.41506
LJ          -4.76516        0.583071         3.17312
LJ         -0.635589        0.881174        -3.33087
LJ           2.00323         3.16795         6.43807
LJ         -0.686162         -2.3366       -0.151522
LJ          -4.39519         2.24812        0.847316
LJ             3.292         2.05283       -0.543541
LJ          -0.25781        -1.03634         4.31254
LJ           4.94415        -3.47409        -2.26731
LJ          0.495383          5.2042        -4.79337
LJ           3.53829        -2.02184        -1.15943
LJ            4.6455        0.536757         2.23244
LJ          -3.18687        -5.91692          6.2599
LJ          -4.72554         1.73638         3.27909
LJ          -1.48885        -5.81193         1.88708
LJ          -5.39147         1.20528         1.46308
LJ          -2.49349        -5.76231         0.31242
LJ            4.2157        -2.95126        0.772229
LJ           4.14243       -0.593797        -1.30363
LJ           5.33707         4.47787         3.31096
LJ         -0.403096        -3.17433           3.882
LJ          -5.61115        -4.37939        -5.12762
LJ          -2.27144        -6.37701         1.56298
LJ          -1.53882        -4.45483        0.746742
LJ          -5.24077       -0.906736        -4.31827
LJ          -2.75995        -1.19796       -0.718442
LJ          -5.81107       0.0245684         2.14573
LJ           5.15246        -4.53553        -4.24575
LJ          -2.58055         6.05012         1.35781
LJ           2.79714        0.413605         4.98641
LJ          -1.01619         3.39095        0.217819
LJ         -0.648495        -6.15111         5.41288
LJ         -0.576273        0.789346         2.20479
LJ          -2.85167        -5.81629         5.74375
LJ           2.90579        -1.54126        -5.72985
LJ          -2.88077        -4.41876         5.22722
LJ           -4.8051          5.7811         4.44038
LJ          -1.02645         2.31951       -0.506046
LJ         -0.483005         3.81341        0.170061
LJ          -4.47661         3.30118         4.26358
LJ          -1.56848       -0.740857         1.54742
LJ          -1.76074         2.89791         2.83495
LJ           5.28195         1.22337        0.525892
LJ          -3.27585         3.63759       -0.360927
LJ           2.16161        0.209023        -1.69301
LJ          -3.61248        -6.19979         -2.3848
LJ            3.8559        -4.53875        -4.44173
LJ           2.06385        -1.57789        -3.64314
LJ           4.89222        0.722786        -2.74912
LJ           1.31016         6.32041         1.52529
LJ          -4.09705         3.73647         2.86586
LJ          -1.81834       -0.646024         6.36365
LJ          0.409671        -6.10284         2.65061
LJ          -2.04594        -5.23087        -1.37084
LJ          -2.82523        -4.19715         5.32573
LJ            1.0767       -0.229503          6.0111
LJ          -4.87939         0.35226        -2.75342
LJ           1.96771         5.71863         2.98405
LJ          -3.30484         2.77813        -5.75159
LJ           5.78369        -4.69713        0.203583
LJ          -2.08336         4.90768        -4.40783
LJ           2.42348         2.35353         6.27023
LJ          -2.59874       -0.792604         4.25787
LJ           1.97405        -4.84504        -4.48093
LJ           3.50563         5.89293        -2.73836
LJ           5.74337        0.486925        -4.65487
LJ           2.66361        0.824504       -0.572519
