108
#Comment!
LJ          -1.56326         3.51944       -0.309526
LJ          -5.89495        -2.68179          4.3363
LJ          -3.98719        0.154623          -1.757
LJ          -3.26405        -2.32311         2.67597
LJ          -2.10274       -0.637833       -0.778612
LJ          -3.41091          2.5781        0.954544
LJ          -3.97918          4.7641        -4.44712
LJ          0.437006          6.4122         5.64733
LJ           3.01996         2.03362         3.77321
LJ           5.29887          1.4433         6.16512
LJ           2.90897         5.60202        -2.72184
LJ           6.40436         2.67933        -5.77776
LJ           0.43179         6.38564         -1.5151
LJ          -4.95732        -5.80125         5.50857
LJ           5.00861         2.52504        -4.59923
LJ          -4.91112        0.144081         1.62664
LJ            1.6186         1.97895        -2.08541
LJ           4.45457       -0.261231         2.91747
LJ          -4.40612         4.78564       -0.606943
LJ          -3.83024        -4.51776         -2.0372
LJ           3.73998         -4.3206         1.80269
LJ         -0.898906       -0.925724        -4.76932
LJ           2.48094         2.16757        -5.16852
LJ          -2.88295        0.640829        -1.65433
LJ          -1.84195         4.48739         3.23054
LJ          -6.20532         3.15667        -1.61632
LJ           5.43983        -6.28826        -1.47653
LJ           -3.8882        -1.70295      -0.0458528
LJ         -0.871685       -0.303549        0.758596
LJ         -0.996273          6.2365        -1.13549
LJ           5.72071         3.28509        -3.44534
LJ           2.53406        -3.08333         3.48985
LJ           4.22204        -1.51092        -4.85083
LJ           3.36589        -3.97917        -2.62264
LJ           1.23823         4.10541          5.4898
LJ            4.6499        -3.05792        -4.45918
LJ          0.277063        -5.98428          2.5841
LJ          -3.54222        -4.16589         2.56147
LJ           4.66712          3.4061        0.186508
LJ           6.39964        -3.34236        -4.60014
LJ           6.13589         3.81297        -6.44229
LJ          -3.76046      -0.0664336         5.08456
LJ           3.87738         1.28796       -0.431637
LJ          -6.25086        -2.64348         5.40048
LJ          0.512919         4.06398       -0.689978
LJ           4.88999         1.45025         5.69425
LJ           4.28178        0.808701         6.02836
LJ           5.79734        -4.52174         5.79576
LJ          -3.97938        -6.23441        -5.66084
LJ           4.44168        -2.50268         2.68741
LJ           5.58645         2.28321        -1.80593
LJ           4.50719         6.29384         1.06951
LJ            -6.242        -2.16198         -2.4801
LJ          -4.55192        -2.40705         1.37827
LJ          -3.92359         1.08497        -6.36504
LJ          -5.95902        -1.36424         1.71842
LJ          -1.17769        -3.62813        -5.96465
LJ        -0.0858853        -2.91349        -2.32843
LJ          -1.06856        -4.69531          6.0823
LJ          -6.43024         1.34997        -1.77288
LJ         -0.196328         5.48868        -1.16994
LJ         -0.794147         2.52038        -5.76536
LJ          -4.96982        -3.32033         0.88635
LJ           2.81168      0.00132182        -4.92024
LJ           4.90082        -4.40106        -4.33724
LJ          0.245287         1.29452        -2.86204
LJ          -4.53999        -3.39131        -1.55444
LJ           2.56199        -5.03365         1.88897
LJ          -2.23351        -1.52677          5.8932
LJ           6.20464         3.55158          2.5485
LJ          0.976733         5.62132        0.278337
LJ          -2.90717         1.23046       -0.640483
LJ          -6.41945        -3.41137           1.659
LJ           5.04468         5.23029        -2.21084
LJ           1.60006         5.45001        -1.27519
LJ           4.45974         4.50241         -3.4072
LJ            2.8643      -0.0222473        -1.51653
LJ           2.09816         -1.0514        -2.35335
LJ            -2.645        -2.69715        -3.09609
LJ          -3.81904        -2.94987         4.23767
LJ          -5.00677        -2.81721        -4.14067
LJ           1.02083         5.60193         -1.9044
LJ           5.20446        -3.46102        0.955536
LJ           4.17704         1.30854        -1.30893
LJ           -0.7072        -6.39017        -5.05381
LJ         -0.959048         2.69695         5.51699
LJ          0.346238         4.09602         3.33303
LJ          -1.94684         1.14843         3.66823
LJ          -6.30512         4.25893       -0.684147
LJ          0.155586         2.69181        -5.44659
LJ           1.95984         4.05263        -2.22559
LJ           5.02442        -2.93202        0.831949
LJ          -5.40612        -5.21866        -3.51365
LJ           3.64817         2.79386        -4.93722
LJ            4.2617           5.956        0.106915
LJ          -5.19936        -2.38118        -4.42186
LJ           5.09962        -1.83899        -2.04282
LJ          -6.26475        -1.56244         3.25219
LJ          -6.24437         2.35013        -3.22183
LJ          -4.50837         3.28401         2.34294
LJ           4.08314         4.75088        -4.54235
LJ            3.0003        -3.09028        -5.62574
LJ          -6.16974         4.09953         4.95205
LJ          -5.44075        -1.78232         1.69878
LJ          -3.70895        -5.12907        -1.35426
LJ           5.41399         4.57758         -6.2244
LJ         -0.751428        -2.14485         -1.5243
LJ         -0.188797         0.36197         4.98516
