108
#Comment!
LJ          -5.76998         2.70747        -3.29542
LJ          -2.17804        -2.79923        -4.00666
LJ           5.43463        -5.41767        0.365936
LJ           3.27911         2.57993       -0.851085
LJ         -0.967731         1.40908         5.29213
LJ          -3.38423        -2.68075         4.26601
LJ           2.93168         1.83965        -2.16206
LJ          -5.30086       -0.788437         4.63342
LJ        -0.0298406        0.999717          1.7949
LJ          -5.05256       -0.777038         6.35694
LJ           1.77639         2.64101        -2.59301
LJ           5.82526         4.55299         -4.9614
LJ           5.20576        -1.11695         5.59718
LJ          -5.25402         1.50033        -4.11865
LJ           2.59223        -3.37067         5.15052
LJ       -0.00861884        -4.58425         -2.2124
LJ          -2.78927        -4.35662        -2.17502
LJ           2.69278         3.18241        -6.43367
LJ           6.05997         6.15425        -1.46195
LJ          -1.14078         4.86402        -1.71055
LJ          0.842823       -0.641891        -5.81288
LJ           -6.0084        -0.70307        0.545085
LJ          -3.46382        -3.83495         3.22686
LJ           -4.7669        -3.19719         4.43383
LJ          -4.04621        -1.47721        -4.53903
LJ           1.42122         4.61945         1.80339
LJ          -4.03972         1.06215        0.856795
LJ          -1.24707        -3.84525       -0.676862
LJ         -0.734846        -1.85041        -2.25934
LJ          -4.00714        -3.13946        -3.00618
LJ           0.16533         1.73552         -3.9231
LJ          -1.42759        -4.00892         4.52212
LJ          0.288843        -2.02883         5.31794
LJ         -0.543409         5.09883        -6.32417
LJ         -0.615023        -2.34686        -4.56663
LJ          -4.31591         2.26248         3.38027
LJ          -1.08015       -0.601825        -2.53371
LJ           4.65813        -3.64122         4.79166
LJ          0.860187        0.869844          1.4344
LJ         -0.372331          5.8065        -3.62254
LJ          -5.90599         3.43232         -6.1861
LJ           3.96459         -1.6411         3.03515
LJ           1.02019        -4.86744        0.802293
LJ         -0.950994       -0.765216         6.28378
LJ          -2.33709        -2.42382         3.06568
LJ           2.08961        -3.30914         4.47409
LJ         -0.106704         2.71613         -3.5543
LJ           4.20591       -0.507697        -1.06306
LJ          -2.55904         1.48872       -0.245599
LJ         -0.159745         2.96496         5.50658
LJ          0.464587        -3.31655         -0.4839
LJ          -1.90566        -2.06337         1.10004
LJ          -1.33105        -4.49745         2.69339
LJ          -4.05684      -0.0734142         1.66628
LJ           5.84202         5.30683        -1.02008
LJ         -0.408454         1.18286         4.97195
LJ           4.80005         1.92125         3.47922
LJ          -4.65837         5.86008        -5.42751
LJ           4.56422        -0.12501        0.479038
LJ           1.53642        0.494285        -5.75712
LJ          -1.16132         2.46632        -1.06601
LJ         -0.796529        -5.93557        -1.41494
LJ           5.33098        -6.37253        -2.71552
LJ           2.90746        -1.34177         5.13573
LJ           4.64323         1.51024         4.61487
LJ          0.779307        -2.90261         5.07944
LJ          -5.07466           2.765         2.39856
LJ           4.50897          5.3239        -4.18744
LJ           2.36272        -6.44014        -5.34574
LJ         -0.791215         1.25848         4.05102
LJ           4.01316          6.2912        -5.31074
LJ           4.06804         4.10533        -1.77581
LJ          -1.59463        -3.23051         1.14082
LJ          -6.23822        -3.24883         5.65212
LJ           -1.8751        -4.95626         0.14994
LJ          -1.20461         5.10145      -0.0923335
LJ           3.52523         3.30053        -4.85225
LJ          -5.24396        0.963958        -4.60491
LJ           4.46647         2.78414        0.606323
LJ           1.10069        -5.58839         2.29497
LJ            3.3307        -4.81876         5.46704
LJ          -3.25063        -5.42073        0.350436
LJ           3.83267        -3.64367        -4.51221
LJ           1.77751        -6.02752        -4.92186
LJ          -4.79721         1.65286        0.415808
LJ          -4.85461          1.9051         5.91968
LJ           5.91765         4.81235         3.99323
LJ          0.771291         5.69689         2.71126
LJ           -5.9135        -4.69854         5.85492
LJ           1.18005         1.49784        -4.72185
LJ           5.37339        -5.17719        -4.50388
LJ           1.11795        -5.68678        0.609175
LJ          -2.96492        -1.13011        -6.22347
LJ          -1.48398         4.09264         4.01012
LJ           1.00784         5.40854         1.53983
LJ           1.39505         4.81552         4.53661
LJ           -4.1608        -5.23218          3.1544
LJ          -6.26143        -1.83842        -4.47792
LJ          -2.12679         6.20853         5.75831
LJ           5.90657        -2.58837       -0.906511
LJ          -2.28326         5.25462         6.10715
LJ          0.749905        -4.38839         0.59666
LJ          -3.98076         4.43136         2.34645
LJ           4.76113        -6.18157         3.66586
LJ          0.632787         1.06821        -2.54374
LJ          -2.27191        -1.42628         4.15588
LJ          -5.64902         2.34363        0.458998
LJ           2.59993       -0.710178         4.25411
