108
#Comment!
LJ           4.36486        -5.84036        -5.32576
LJ           4.94043         3.05019         2.38005
LJ           3.47358         6.31267         4.08203
LJ           2.00951         2.15339          1.3544
LJ          -1.61633        0.938133       -0.736267
LJ            4.8569        0.634657         3.19085
LJ          -5.00663         1.08158        -5.04496
LJ           -0.6125          1.0353         3.34663
LJ         -0.323868        -3.69826        -1.21959
LJ          -3.53902          4.6977         2.92711
LJ          -3.22065         2.23797         2.88672
LJ          -4.43518         6.36857        -6.39659
LJ           5.31132         0.47526         2.83478
LJ          -3.42801         -5.9979        -6.24412
LJ          0.903223         2.77282         1.39953
LJ           1.84142         4.17496        -2.69118
LJ          0.819098         6.12923         3.76957
LJ         -0.593321         -6.0899          1.9378
LJ          -1.08572          5.6041         6.15168
LJ          -6.18445         2.38732       -0.807005
LJ           6.25468         4.06627         5.01462
LJ           5.05752          4.1358         6.43736
LJ          -2.47052       -0.965105          2.2636
LJ           4.24021         5.79037        -6.10145
LJ            5.1103        -5.43946         3.65896
LJ          -5.01988       -0.142628         2.55857
LJ          -4.50784        -2.69104        -3.45211
LJ          -5.46723         5.64381        -4.39488
LJ          -3.73587         5.40107        -0.66181
LJ           2.54343         4.17107         -3.5078
LJ            2.1996         5.95516        -3.16579
LJ          -3.70856       -0.264785         1.19067
LJ          -2.04988         2.63205        -3.05846
LJ           4.69561         6.15036         2.58911
LJ          0.212722         1.84986           2.845
LJ          -2.22476        -1.09829        -1.36421
LJ           3.08019         4.14953         1.54779
LJ           5.87752        -4.50479         4.62783
LJ            2.8289       -0.689792       -0.449627
LJ         -0.439267         5.35636        -3.70001
LJ          -3.17106         2.75002         2.33789
LJ          0.764275        -1.79756         6.38048
LJ          -3.18246       -0.766497          1.0428
LJ           2.67773         2.02605         1.66607
LJ              3.83         4.29923         5.22695
LJ           1.99162       0.0471365         -2.7246
LJ          -1.66961         5.87862          2.6421
LJ           2.52736        -2.61995       0.0135449
LJ          -4.23418         6.03168         5.51208
LJ            2.2193       -0.993781        0.469584
LJ          -3.79813        0.755026         -1.8348
LJ            1.3568        -1.73266         4.82158
LJ          -1.98702       -0.267267        -3.46585
LJ          0.480583        0.192426          4.9361
LJ            4.7146        -3.73445         2.90556
LJ           5.22315         1.66291         5.19189
LJ           3.43841        -3.41439        -2.30168
LJ           5.88868        -6.20509        0.710914
LJ          -5.47532        -4.91531       -0.240745
LJ          -3.68211         -5.9631         5.84772
LJ        -0.0117787        -2.94247        -4.68831
LJ          -2.17395        -5.07612       -0.092184
LJ          -2.70761        -5.70429          2.9695
LJ          -3.68055        -5.31897         -0.3098
LJ            5.9806         4.30616        -2.02389
LJ           4.88875        -5.21389         3.16438
LJ          -2.47887         2.10685        0.884435
LJ          -1.24996        -3.92291        -4.95758
LJ           3.89673        -6.26336         2.42034
LJ           -1.8601        -5.78488        -5.41034
LJ          -3.17005         2.60427          1.4837
LJ          -6.22871       -0.559085        0.570382
LJ           5.89145        -2.46509         -5.7124
LJ             3.021         4.13622        -2.93731
LJ          -2.57287         5.26108         2.35403
LJ           4.94354        -5.37344         2.50259
LJ          -2.75466       -0.481344        -3.56665
LJ          0.888027         6.01139         2.87216
LJ          0.868424        -3.70756         4.75805
LJ          -5.28056        -5.03488         2.71586
LJ         -0.347083         6.21112        -2.45411
LJ           0.39361        -5.55406         4.12064
LJ           2.32816         4.87501        -1.52291
LJ         -0.637662         -2.6107        -1.14682
LJ          -5.18952        -2.70361         -5.5131
LJ           5.33298         1.59187        -1.93346
LJ           1.62927          -4.652          5.3819
LJ          -4.38816         1.06824        0.106384
LJ          -1.37009         2.43017         1.57749
LJ          -2.66159         5.67506         1.16366
LJ           2.67242        -5.02161        -1.76337
LJ            5.3063         4.43442          2.6609
LJ          -4.47367       -0.412033          5.6083
LJ           2.35665         -2.1671         6.31399
LJ           2.68555         2.60877        -3.36185
LJ           -2.0149         1.47913        -2.71593
LJ          -2.75686         3.26636         3.09017
LJ           5.97592         3.74963        -3.08816
LJ          -5.89255        0.673073         5.79353
LJ           3.71512        -4.29914         2.29158
LJ           3.41246        -4.58752        -3.70766
LJ           2.25477        -5.64451        -4.14021
LJ           3.10925         1.60096         1.12397
LJ            4.7984         3.17036         4.44114
LJ           5.33317         5.10001          5.6862
LJ           6.02889        -4.67806        -3.62563
LJ           3.42773       -0.471163        -1.98346
LJ           3.93449        -1.45124        0.183955
