108
#Comment!
LJ           1.09594        0.722094        -2.15871
LJ           4.65925        -0.84214         4.79618
LJ           4.29058         1.09549        0.136276
LJ           4.31078         2.16914       0.0529902
LJ          -4.81407         6.45163        -4.18302
LJ           4.37574         2.70298         1.01484
LJ          -2.84703       -0.296347          3.6248
LJ           4.02551        -1.69969        -3.74856
LJ           -3.0806         3.32843         2.52826
LJ          -3.66692        -1.14672         -5.5718
LJ          -1.59904         1.20671        -5.37576
LJ          -3.46409         4.16383        0.638095
LJ           1.60679        -5.63935       -0.547711
LJ           -3.0171        -3.20488        -1.40102
LJ          -1.48863         2.16335        -5.07565
LJ         -0.728731         -2.0823         3.65265
LJ          -1.54887         -2.5088        -6.13405
LJ         -0.481384        -6.33547        -5.60893
LJ          -2.14748        -2.76982        -4.77906
LJ          -4.33852         -5.8845         5.69586
LJ           -2.3321        0.169656       -0.435335
LJ           3.82983         6.01869         1.41481
LJ           5.89277         1.42371         5.70307
LJ           1.16888        -3.29474         1.44242
LJ          -3.85972       -0.920392        -0.12657
LJ          -6.24296        -6.31106       -0.110163
LJ          -5.85824        -5.30899       0.0892168
LJ          -4.49866        -0.32359        -5.83104
LJ          0.566945         4.53604          1.4037
LJ           1.00359       -0.612201         3.16811
LJ           1.62776         4.71422        -4.61522
LJ           3.20674         5.72623        0.399501
LJ           4.89568        0.375588         4.62637
LJ           2.96931        -3.10708        -2.63146
LJ           5.41201         4.01954         2.10655
LJ          0.479286        -1.30817        -2.77787
LJ          -3.50675        -6.37355         5.11329
LJ          -3.18152       -0.073919         1.89947
LJ          -1.31442       -0.184438         4.91888
LJ          -5.55485         4.68635        -1.27275
LJ           5.56974        -2.59342        -2.30901
LJ           1.93377        -4.29976         4.44702
LJ         -0.578914        -1.50176        -1.31368
LJ          -2.58185        -1.10519         2.40701
LJ           3.38432         2.34814         4.77119
LJ           6.18543         0.78238        0.896116
LJ          -4.97655        -3.24377         -2.7878
LJ          -3.59056        -1.50015         6.24281
LJ           3.45668         -1.8698         5.30253
LJ           4.55938        0.341763        -4.54311
LJ          -2.30381         -3.2125        0.777076
LJ          -2.47481         5.52732        -3.38322
LJ          -4.37439         -6.0837        -2.19282
LJ           3.57967         4.83505        0.407423
LJ           1.54659          5.4761        -2.18532
LJ          -2.83173        -6.27614         5.99691
LJ           5.14687         2.97747         -3.1126
LJ          -4.42492         4.14377        -2.76918
LJ            4.8166        -6.27176         1.10642
LJ          -2.06775        -4.97507       -0.524271
LJ          -3.05754       -0.432837         6.43487
LJ          -2.61807         4.46629         2.46561
LJ          -6.00267         5.45775         -5.6331
LJ           4.93714         5.65768        0.994689
LJ             5.939         6.28172         1.31824
LJ           3.39074         6.18621        -2.04752
LJ           4.59137        -4.49345        0.221844
LJ           1.83358         2.68659        -5.56419
LJ           5.09704        -1.47725        -2.66014
LJ           2.91085         3.33276          2.1614
LJ          -1.32392         1.31248         1.41982
LJ          -2.41876        -1.19315         1.07895
LJ          -5.12688        -4.89455        -2.89935
LJ          -2.59891        -3.75779         4.73438
LJ          -5.20373        -4.18644        -4.76829
LJ           1.52386        -2.55768        0.797821
LJ           3.32613        0.524648         4.41645
LJ          -1.93836        -2.05618         3.90402
LJ          -5.86136         6.40511        -3.98973
LJ          -2.97718        -3.80445         6.18834
LJ          0.565189       -0.697071        -6.05035
LJ           4.09462        -1.77869        -2.74719
LJ           3.42112        0.259745       -0.852823
LJ          -2.14092       -0.899086         4.29038
LJ           1.86757         5.29716         -5.4008
LJ          -4.12374       -0.626582         1.02192
LJ          -1.24836         1.49687         2.60615
LJ          -4.06046         5.52942        -5.50119
LJ            3.2763        -2.46203        -1.87397
LJ           1.83544          5.9158        0.791416
LJ          -5.79231          4.6139         4.35192
LJ           5.72282       -0.478137        -2.20273
LJ           6.25751         4.82775        -4.13982
LJ           1.88008         1.18007       -0.255059
LJ          -5.32111        -6.04515        -3.20694
LJ           4.82418        -2.05363        -1.71452
LJ          -3.79636        -1.23798         3.28854
LJ          -1.26005        -5.90145         5.45776
LJ          -1.22492        -3.74284        -4.38302
LJ          -6.43676         3.90757        -1.04221
LJ          -1.00934      -0.0141645         1.48343
LJ           2.27607        0.290221       -0.497887
LJ           3.54775        0.644195        -4.43403
LJ         -0.636824         1.00637        0.399142
LJ          -6.41094         2.52589          1.8855
LJ           3.85844         3.92388        0.993935
LJ          -3.74677        -2.94011        -2.53836
LJ           -5.8499         1.51948         5.95921
