108
#Comment!
LJ          0.734187        0.670297        -2.45888
LJ           5.81369       -0.417832         6.06446
LJ           5.26808        0.262843        0.197259
LJ           5.05108          3.9869        -1.86081
LJ          -6.43273         4.31147        -3.48237
LJ           5.31792         1.89242         1.26874
LJ          -2.00531       -0.729012         1.92744
LJ           3.16227        -1.07944        -3.81673
LJ          -3.94961         4.87384         3.40553
LJ          -3.35693        -3.43203        -4.93753
LJ        -0.0759123         2.19579        -5.60185
LJ           -4.0123         5.01806       -0.398363
LJ           2.70327         -4.2417       -0.152984
LJ           -1.3543        -4.98821        -3.46482
LJ         -0.676411         3.99229         -4.4275
LJ          -2.16952        -0.64983          4.3073
LJ          -4.01898        -1.17643        -5.15704
LJ         -0.103726         -3.8376         6.34013
LJ          -2.51632        -1.50028        -3.89829
LJ          -5.40922        -3.01537         3.80597
LJ          -1.69573        -2.46842        -3.54825
LJ           3.24425         6.35214         2.66004
LJ           5.54638         1.86374         3.75182
LJ         -0.569423        -5.71529         2.24956
LJ          -5.48045        0.966648         1.42484
LJ          -5.56552        -4.65485          2.1276
LJ           6.37718        -3.88312         1.81268
LJ          -4.12056         1.02081         5.82838
LJ          0.406804         2.42092         1.83598
LJ          0.266802        -1.07604         2.09896
LJ           1.29204         4.87167          -4.396
LJ           3.01857        -5.26304         2.45239
LJ            4.9715         3.37278         4.87522
LJ           1.45886        -4.67556        -3.60151
LJ           5.33202         2.73697         2.26149
LJ           1.87254        -1.01845      -0.0860666
LJ          -2.70237        -5.64408         6.11635
LJ         -0.981566        -1.05435         1.96394
LJ          -2.02753      -0.0785888         3.33761
LJ           -6.2251         3.64716        -1.53711
LJ           5.13705        -1.32443        -1.92036
LJ           3.89099        -3.59257         5.27713
LJ          -2.37544        0.453917        -1.30843
LJ          -2.41501        -1.80284         2.82598
LJ          0.744548       -0.674616         2.82821
LJ          -5.56521        0.944127         2.68225
LJ          -6.28686        -2.48032        -2.70064
LJ          -3.71283        -2.36496        -5.33222
LJ           3.54893         -3.4029         6.28058
LJ           4.35514       0.0191106          4.4734
LJ          -3.07098        -2.24955         1.98288
LJ          -1.72165         3.73381        -3.98978
LJ          -5.66971         -4.2237        0.133057
LJ            4.0637         3.40859         0.57545
LJ          0.502667         4.97051        -2.18187
LJ          -2.11896        -4.68049         6.23604
LJ          -5.71835         2.66375        -2.14576
LJ          -4.83007         3.13016        -3.56434
LJ           6.25861         6.11914         3.28057
LJ           1.02202        -2.95688       -0.237315
LJ          -3.90543        -1.87526         5.69157
LJ          -2.22302          5.0011         4.09615
LJ            5.9516         3.11667        -3.71757
LJ          -6.42008         3.20196        0.942691
LJ          -5.89029         5.15712       -0.215712
LJ           3.23228         6.40359        -4.15079
LJ          -6.25783         4.67524         0.82037
LJ           2.37257         2.61258         5.25881
LJ           3.96158        -1.57706        -2.20197
LJ            4.3122         3.16901         1.80902
LJ         -0.782087        0.414164         1.37091
LJ         -0.253739       -0.677821         1.33216
LJ          -2.64447        -3.55395        -2.22399
LJ           -3.0153        -3.46796          2.7212
LJ          -6.02107          -6.389         5.63441
LJ           3.18736       -0.134051        0.760265
LJ           1.40149        -3.16831         1.16486
LJ          -1.23825        -2.35571          2.7777
LJ           5.07761         5.98154        -4.87549
LJ          -3.08119        -3.03586         3.69142
LJ          0.493405       -0.878969         4.77815
LJ           3.61337        -2.83196        -1.75043
LJ           2.86543        0.237134       -0.992525
LJ          -1.39731        -1.14515         2.97833
LJ           4.17783        -6.10139        -4.81065
LJ          -4.75199        0.020638        0.988452
LJ         -0.527555         1.27831         2.40508
LJ          -2.45609        -3.93634         -3.5619
LJ           3.85292        -3.00591        -2.88833
LJ          0.970442        -6.34153         3.55373
LJ           6.27961         5.42308         4.38171
LJ           5.83698       -0.342417        -1.63828
LJ           3.71692         4.58153        -3.27915
LJ           2.28147         2.09734       -0.661345
LJ           6.19647         4.38689        -2.33108
LJ           4.39209        -1.92665        -1.27365
LJ          -4.95057         -0.1271         2.68705
LJ          -2.79117         5.83793        -4.72412
LJ          -1.39987        -3.34038        -2.11654
LJ          -4.99586         3.20156        -1.39043
LJ          0.375297        0.990493         1.92032
LJ            2.4751       -0.776397         -1.1793
LJ           2.73943        0.183311         -5.7128
LJ         -0.329841         1.76858         1.27083
LJ            5.4118         1.64285         2.39069
LJ           3.18932         2.29563        0.919802
LJ          -4.89282        -1.39561         -2.6824
LJ           5.89806         1.62282         4.79349
