108
#Comment!
LJ           1.14312      -0.0504659        -3.20863
LJ           4.69123        -1.23906         1.52422
LJ           2.31953       -0.753821         1.28861
LJ           4.99785         3.67904         1.55798
LJ           -3.0785        -4.56373         5.66446
LJ            3.3824         5.78137        0.682371
LJ          -2.30777        -1.25364         4.34521
LJ           4.78985         -1.8896        -3.53934
LJ         -0.420399         5.47301         1.40197
LJ          -3.78901         0.30938        -5.80287
LJ          -4.58969       -0.851453         -5.4529
LJ          -3.80438         1.75988       -0.759649
LJ          0.783649         4.41077        -1.23248
LJ           -4.4725         0.71707        0.917255
LJ          -2.37007        0.804457        -5.56204
LJ          -1.16669        -3.86475         1.64935
LJ           0.74225        -4.80094         5.98927
LJ          -1.19849         2.83942        -4.50923
LJ          -3.66155        -2.58748         5.54429
LJ          -3.52345         1.66259        -4.84022
LJ          -1.96779        0.995385          2.4661
LJ           4.42251          5.8451         1.76262
LJ          -5.91851        0.842213        -4.53198
LJ           1.22335        -5.04649         3.44725
LJ          -2.13743        -3.71146        0.842431
LJ           5.57032        -5.23215        -2.98248
LJ          -5.37296         4.29264        -2.28364
LJ          -6.06636        -1.36206        -4.05388
LJ           1.15148        -5.16962        0.577139
LJ           1.94535       -0.093803         4.96318
LJ           1.87786         3.91045        -3.54267
LJ           4.11729        -6.30099       -0.254884
LJ            5.9312        -2.41966         4.19662
LJ           3.33589        -2.29811       -0.813503
LJ           5.22764         5.28728         1.06587
LJ         -0.516268        -1.02664         5.92544
LJ          -1.95928          5.9205         4.27321
LJ          -4.27951       -0.369284         1.87132
LJ          -2.45751        -1.25829         6.10887
LJ          -6.10151         4.52117     -0.00298265
LJ           2.65385        -3.33135        -3.38826
LJ          -1.66897        -5.63128         4.69949
LJ          0.776113         -4.1257        -2.96481
LJ          -4.99547        0.503882         2.25252
LJ          -5.62301         6.20235        -5.53598
LJ           4.92467         2.00553         1.16239
LJ          -5.43066        -3.04787         -0.2746
LJ          -2.45776        0.816708         6.00687
LJ          0.805896       -0.748476         5.31264
LJ           6.03538        -1.76939        -2.22556
LJ          -1.12356        -3.83547       -0.429604
LJ          -1.81889        -4.71544        -3.06591
LJ          -1.82399         2.49602        -2.05545
LJ           3.18921         5.34619       -0.995819
LJ           3.33401         6.38218        -2.86577
LJ          -5.89569         4.60083          5.2905
LJ           2.17729         3.46138        -4.49072
LJ          -3.92234         5.61908        -1.44006
LJ           1.24594        -3.21906       -0.109608
LJ           6.30875         4.75541        -1.10287
LJ          0.115187        0.275942         4.58812
LJ          -3.43688         3.95459         3.85453
LJ          -5.38949         5.66321         5.67674
LJ            3.4402         6.45502          1.6113
LJ           6.17191        -4.57767         3.26001
LJ           3.37655        -5.05147        -2.95921
LJ           4.03659        -1.85727        -2.21157
LJ          0.952107         2.17072        -2.37876
LJ           4.87807        -1.30488        -2.51421
LJ          0.454609         4.03948         3.65808
LJ          -2.65813        0.153612         1.37095
LJ          -4.92258        -1.03838         4.20903
LJ          -6.33929        -2.33756         -1.0185
LJ        -0.0545145        -4.36168        -5.44452
LJ          -3.54533        -1.46011         -3.8577
LJ            2.5659        0.597328        -3.08056
LJ          -6.44883         6.20837        -3.64812
LJ         -0.953441        -1.28125         5.07049
LJ          -4.29355        -6.26381        -4.61321
LJ          -1.47202         -3.8966        -4.99139
LJ         -0.472053        -1.33762        -3.10009
LJ           5.64468       -0.827638        -3.40862
LJ            3.1638         1.43063        -2.33353
LJ          -3.12838        -0.49149           4.925
LJ          -1.07674         4.14249         5.48473
LJ          -3.46664       -0.475701       -0.548619
LJ          -2.29904       -0.515185         2.18933
LJ           6.31989         1.64515         4.82147
LJ           4.47968       -0.723826        -1.88381
LJ          0.480488         4.44438        -2.33013
LJ          -4.51207         3.57932         4.54208
LJ           5.62801        0.133605        -2.82827
LJ          -1.50816         4.97721        -6.19051
LJ           2.24242         1.82292         2.45494
LJ          -3.29948        -5.79395        -5.21813
LJ           5.05343        -1.56671        -1.24763
LJ          -1.21407         -1.1516         4.04197
LJ        -0.0561981        -3.32016         1.54039
LJ         -0.234227         -6.0189         6.03928
LJ           5.05883         4.40256        -1.01278
LJ          -3.70474        0.783931         1.55559
LJ           3.61649        0.231376        0.362345
LJ           4.26393         1.29994        -2.41806
LJ          -2.59581       -0.338772        0.162201
LJ          -5.67259         3.70201        0.718045
LJ           4.55784         2.28601         2.04861
LJ         -0.382223        -4.87791        -1.40722
LJ          -5.93794         1.18653         -5.5478
