108
#Comment!
LJ          -5.13155        0.870885        -4.27552
LJ          -6.37501        -5.34138         1.55677
LJ           4.84593         -4.9148        -2.24513
LJ          -5.29132        -1.41269        -6.46107
LJ           3.74197        -3.89354        -1.21443
LJ         0.0827083         -1.2293        -2.62838
LJ          0.315284        0.124792         3.97027
LJ           4.67217         1.15286         3.87682
LJ           4.74891        -4.58654        -5.31648
LJ          -2.30947         1.35422         -5.3187
LJ          -5.91706        -3.58761        -5.02176
LJ          -3.92847        -4.78482        -5.50639
LJ          -3.32289          1.2124         -2.5552
LJ           5.54434         6.18329       0.0774226
LJ          -2.83691         3.63198          2.0372
LJ           4.35154        -1.46623         5.08819
LJ         -0.270027         2.09184        -5.22878
LJ         0.0235256        -3.33713        -2.94179
LJ         -0.964666        -3.68707        -4.67591
LJ            3.6228         3.32345        0.700221
LJ           3.44026         5.38513        -6.04842
LJ          -1.70174         3.23858        0.288256
LJ            1.0948        -5.84454       -0.164563
LJ          -1.81873        -5.63909        -1.48328
LJ          -2.69424         -5.7877        -1.58213
LJ          -3.03122        -6.32986          3.9157
LJ           5.64782       -0.411845        -3.04623
LJ           3.11869         3.96281        -4.88697
LJ          -4.61638        -5.60167        -1.44061
LJ           4.33838         5.65448         1.39187
LJ            1.8642         2.11309        -3.69837
LJ          -4.03666        -1.15439       -0.122198
LJ          0.734111         4.89687         -6.4078
LJ           5.34692        -6.07799        -6.14936
LJ          0.802661         4.70618         4.80605
LJ          0.743636         4.21858         5.35936
LJ          0.823629        -1.25837         4.36363
LJ          0.556086        -6.32791         5.92186
LJ           1.88479         2.63188        -3.29639
LJ          -1.38793         4.74225       -0.688228
LJ          -2.73474         5.64776        -4.62727
LJ           -4.8346         2.45661        -1.06412
LJ           2.73157         1.42339         6.10604
LJ           -6.0927        -1.09345       -0.781483
LJ           6.28152         3.55581       -0.847447
LJ          -5.78601          -5.033         3.73043
LJ           1.80611          4.7399        -5.17034
LJ          0.341028        0.315014        -1.12978
LJ         -0.990584         5.21067        -1.41579
LJ         -0.114999        -4.51354         1.51059
LJ          -1.59842         5.03112         4.30802
LJ         -0.993344          -3.374        -4.14205
LJ          -6.15139         2.75812         4.37027
LJ           6.00371        -4.82564        -1.86298
LJ          -5.73241         1.19538         3.43377
LJ           2.99366           4.683         4.09534
LJ            5.4644        -1.36306       -0.434916
LJ           3.98562       -0.912391         1.60762
LJ           2.34579        -2.95763         3.50379
LJ          -1.25206         2.71081         5.14406
LJ          -3.02226         4.98563        -6.34213
LJ           3.04179         2.67094         3.60008
LJ          0.537604         2.40307         5.97201
LJ           -5.6275        -3.02452        -4.26927
LJ          -4.60554        -5.85785        -1.02676
LJ          -6.03548          6.4007         5.39632
LJ          -1.10316        -2.61569        -1.21346
LJ           5.63655        0.785228       -0.101141
LJ         -0.916549        -2.34211        -3.90365
LJ          -2.29112        -1.96668        -6.09809
LJ           2.87053        -4.28119         -3.7951
LJ           4.23092        -3.82041        -2.89992
LJ          -2.59971        -4.75085        -6.30148
LJ           1.96544       -0.465017       -0.839712
LJ          -2.81361        -3.52632        -2.80895
LJ          -4.07302        -1.37426        -4.10861
LJ          -2.71975         6.00901        -4.17991
LJ        -0.0724884         6.01164        0.848437
LJ          -5.33607        -5.31623        -4.15704
LJ           -4.8633         1.93718        -2.67294
LJ          -1.40756       -0.205177        -0.97121
LJ          -2.37956         2.84239         1.35763
LJ          -2.42863        0.757419      -0.0749667
LJ          -4.88103        -2.67376         1.88949
LJ           2.09997        0.327772        -3.95187
LJ           3.06566         3.56964         1.78401
LJ           6.29182         2.91801         3.00791
LJ            1.1638        -1.01164         3.84284
LJ          -3.07911        -4.53398         3.00237
LJ           5.41373         3.03818         -6.0172
LJ          -1.15154         -2.2531         2.71426
LJ          -4.77844        -4.99704        -6.34685
LJ           1.62111        -6.03451         1.49864
LJ          -5.94246         1.81291        -6.27206
LJ           1.23295        -3.44376        -3.39897
LJ           1.39161        -5.64106        -3.68982
LJ         -0.587833        -5.59269         4.14828
LJ           2.29274        0.610802         6.30134
LJ           2.82156        -1.17225       -0.901513
LJ         0.0104678         5.20858        -4.26466
LJ          -2.52543        -5.59787         3.10714
LJ           2.34083         -3.1222        -1.94542
LJ          0.537992         3.88242         5.45643
LJ          -2.33187         -5.2423        -1.65803
LJ           5.43583        -3.77667         5.34321
LJ          -5.79761        0.714375          1.7779
LJ          -1.33056         1.46937         1.45102
LJ           1.29341        0.248271        0.878916
