108
#Comment!
LJ           1.19989        0.933784        -1.85332
LJ           5.05304       -0.781084         5.15191
LJ           4.61226        0.818348        0.174803
LJ           4.16363         2.90798       -0.115818
LJ          -5.01779         5.85389        -4.08298
LJ           4.58744         2.43753         1.26807
LJ           -2.7387       -0.223601         3.31915
LJ           3.90408        -1.52176        -3.71715
LJ          -3.44031         3.68078         2.76535
LJ          -3.68917        -1.96336        -5.24264
LJ          -1.14575         1.40902        -5.48339
LJ          -3.61554         4.41501        0.333649
LJ           1.92378         -5.2261       -0.440978
LJ          -2.52307        -3.80493        -1.95732
LJ          -1.23427         2.76915         -4.8633
LJ         -0.844341        -1.81845         4.11542
LJ          -2.05432        -2.04626        -5.74812
LJ            -0.332        -5.58904        -5.87003
LJ          -2.08699         -2.5205        -4.49934
LJ          -4.26853        -4.85452          4.9978
LJ          -2.25253        -0.59682        -1.37235
LJ           3.92803         6.18827         1.87303
LJ           5.83256         1.53932         5.08763
LJ          0.702338        -3.91249         1.61266
LJ          -4.42301       -0.206367       0.0698057
LJ          -5.96011        -6.03293        0.572581
LJ          -6.10003        -4.64972        0.588167
LJ          -4.21729      -0.0292149        -6.30949
LJ          0.495886         3.90896         1.51113
LJ          0.797693       -0.773518         2.86025
LJ           1.49888         4.73356        -4.54302
LJ           3.08648         6.30752         0.86713
LJ           4.74694         1.29714         4.67596
LJ           2.44353        -3.64284        -2.98772
LJ           5.54206         3.53898          2.2566
LJ          0.935146        -1.25706        -1.83158
LJ          -3.31682        -6.26635         5.29812
LJ          -2.55305       -0.470018         1.87108
LJ          -1.53821       -0.111832         4.48194
LJ          -5.77816         4.61739        -1.57301
LJ           5.47971        -2.28088        -2.38592
LJ           2.49112        -4.12959         4.66011
LJ          -0.99853       -0.913128        -1.26899
LJ          -2.60015        -1.40666         2.43098
LJ           2.62155         1.48684         4.22046
LJ           6.42506        0.885532         1.42507
LJ           -5.1716        -3.31758        -2.74915
LJ          -3.72826        -1.81364        -6.37521
LJ           3.49014        -2.29179         5.62039
LJ           4.51906        0.266572        -5.70531
LJ          -2.55553        -2.98908         1.07459
LJ          -2.27706         5.01574        -3.53743
LJ          -4.73703        -5.56017        -1.49306
LJ           3.80043         4.50058        0.241903
LJ           1.23452         5.32745        -2.17716
LJ          -2.67962        -5.67568         6.12633
LJ           5.70095         2.89084        -2.81976
LJ          -4.50897         3.82187        -3.01661
LJ           5.13359        -6.43793         1.64761
LJ          -1.16223        -4.39372       -0.439563
LJ           -3.5145       -0.631774         6.21065
LJ          -2.39476         4.72021         2.96468
LJ          -6.33563         5.14844        -4.85208
LJ           5.40405          4.8342        0.949198
LJ           6.33394          6.0178        0.756776
LJ           3.45782          6.0639        -2.62736
LJ           5.08104        -5.57303        0.643368
LJ           1.98954         2.66566        -6.17909
LJ           4.86412        -1.36883        -2.82641
LJ           3.48706         3.21163         1.81348
LJ          -1.30843          1.0943         1.39364
LJ          -1.62357        -1.14981        0.939236
LJ          -4.55497         -4.2043        -2.71205
LJ          -3.00068        -3.79895         4.16408
LJ          -5.44681        -4.82124        -5.50913
LJ           1.83021        -1.99969        0.738432
LJ           2.78733       -0.572443         3.47368
LJ          -1.82698        -1.96532          3.4961
LJ           6.46033         6.06609        -4.40273
LJ          -3.17891        -3.61896         5.57717
LJ          0.550768       -0.750405         6.27234
LJ           3.98949         -1.8788        -2.17615
LJ           3.36233        0.320854        -0.92788
LJ          -1.96461        -0.94528         3.93233
LJ           2.56814         5.78727        -5.27989
LJ          -4.25758       -0.605228          1.1839
LJ          -1.05833         1.57442         2.68447
LJ          -3.58306        -6.39122        -4.96315
LJ           3.34888        -2.84502        -2.18119
LJ           1.53102         6.10504         1.62396
LJ           -6.0402         4.84769         4.36811
LJ           5.53272       -0.680667        -1.91231
LJ           5.31552         4.89797        -3.84772
LJ           1.70743         1.34234       -0.793705
LJ          -5.85887         5.97829        -2.89437
LJ           4.81774        -1.78301        -1.48326
LJ          -4.23735       -0.946396         3.16106
LJ          -1.57532        -6.36715         6.27407
LJ          -1.36729        -3.41154         -3.8278
LJ          -5.98106         3.47239       -0.986613
LJ         -0.494611        0.132958         1.63692
LJ           2.35377       -0.116452       -0.734724
LJ           3.23859        0.531686        -4.76671
LJ         -0.438056         1.35658        0.498585
LJ           6.29942         2.34014         2.07325
LJ           3.60201         3.23797         0.75053
LJ          -4.15977        -2.45232        -2.60103
LJ          -6.04945         1.54989          5.7021
