108
#Comment!
LJ           2.21209        0.157213        -3.03951
LJ          -3.87597         2.92949         3.87866
LJ          -3.34147         5.20044         4.92775
LJ          -5.89142         2.08653         1.00614
LJ           4.85285        -4.56176        -1.25934
LJ           6.24152       -0.180785        -2.08012
LJ           -4.0446        -4.61913         2.38954
LJ           4.16361        -2.72415        -1.27091
LJ           2.45088        -3.65161         5.00011
LJ          -2.81684        -3.75525         -3.8528
LJ          -2.18405        -6.42545         5.25956
LJ          -3.30441         4.62382          5.3077
LJ          -1.75884         4.02404        -1.02387
LJ          -6.31145       -0.328335         -2.8209
LJ           3.35278        -6.37385        -1.93029
LJ           5.33698        -2.27203          4.7144
LJ           -4.2257        -2.74585        -1.84868
LJ           3.62829         3.46071         -5.6547
LJ           -2.3218        0.149514         5.57847
LJ           1.07695         5.31344         4.24734
LJ          -5.59846         3.22827         3.09962
LJ          -4.38708         4.30912        -5.38404
LJ           1.83602        0.620405       -0.147397
LJ          -2.03333         5.78272         3.56899
LJ          0.694738        -6.40762         -5.2324
LJ          0.407853         5.11807        -5.73942
LJ          -5.19783        -5.37956        -6.14193
LJ           2.65891          3.7922        -5.87903
LJ           1.06946         1.60775        -5.73272
LJ          -5.26335         5.38109        -4.82606
LJ           -2.0696        -5.43521       -0.447341
LJ         -0.781281          -2.459        -6.26423
LJ           6.38414         4.37621        -3.20435
LJ           1.29954         3.43964        -3.09316
LJ           3.64334        -4.41548        -4.12016
LJ          -5.43024         1.61991         3.48603
LJ          -4.49532         6.11086         5.52628
LJ           2.12247         5.84336        -2.95925
LJ           -5.0269        -1.93652         1.98788
LJ           3.63354        -3.46739         6.35265
LJ           3.14448         1.18072        -3.22745
LJ           5.76722         2.84982        -2.40255
LJ           4.19127        -2.18249        -1.36626
LJ           2.49418        -1.67442        -3.57687
LJ          -3.55442         4.43573         5.28141
LJ           -3.8985         4.34734         1.57588
LJ           4.58077         2.79658       -0.544707
LJ           1.88615        -1.08053        -3.09662
LJ           6.12073         3.87856        -3.04124
LJ           2.78998         1.76706        0.132639
LJ          -3.36724        -4.56372         5.87395
LJ           2.52343         4.06064        -3.38763
LJ           6.09905        -2.60341          1.2378
LJ           2.81393        -3.37047        -1.79801
LJ           -4.1514        -4.49666        -5.07155
LJ          0.592243        0.229744        -1.85324
LJ           5.26213         5.28228        -1.59042
LJ          -5.45649        -5.76635         3.29559
LJ           1.37739        0.344641       -0.197926
LJ         -0.964088         1.74929         3.75851
LJ           5.97664        -3.97357        -3.96702
LJ           4.10639         6.18099         5.88149
LJ           6.10167         5.23329        -5.81849
LJ          -2.52293      -0.0432899         1.26652
LJ           3.21019        -2.26558        0.482718
LJ          -4.62746          4.3658        -6.27729
LJ           3.60745         1.61634         1.10302
LJ          -2.66364         2.46499        0.714112
LJ          -3.86002         5.04876        -3.94759
LJ        -0.0577672         5.99558       -0.536075
LJ          -1.11005         1.16039        -1.89229
LJ         -0.957594        -1.17592       -0.344599
LJ          -5.76471        -4.81049         4.97067
LJ         -0.327742        -4.29246         3.67006
LJ          -5.14688         5.49497         4.33818
LJ           5.92597        -4.32521         5.75837
LJ          -2.83771        -3.63007       -0.285055
LJ           5.51644         2.02979         1.43985
LJ          -4.98308         6.45502         2.68632
LJ            4.1261         3.25687         6.04379
LJ          -1.96868         2.70854         4.36851
LJ          -5.76648         1.79369         5.78438
LJ          0.926614        -3.77725         1.70089
LJ           5.07498        -2.75967         4.37118
LJ          -6.07604         5.78191         -4.7284
LJ         -0.930767        -6.36136        0.416344
LJ          -2.95788         2.12977        -4.91442
LJ           1.71836         5.52592         1.64493
LJ           5.74601        -3.59573        -6.20343
LJ          -1.65999        0.742973         5.06525
LJ           -3.2841        -1.97417        -6.02092
LJ          -5.19338        -2.26868        -3.15945
LJ           0.53922         6.45808         1.50362
LJ          -6.24643         4.09727         4.53034
LJ           1.90572         2.73794         -4.1279
LJ          0.738373        0.993447        -5.61905
LJ          -5.56847        -4.61252        -2.58485
LJ           5.99489        -5.20623        0.830266
LJ           -5.8259         6.42529        -4.99513
LJ            1.7645         5.19805         1.06928
LJ          0.954324         3.89344        -5.16679
LJ            1.5701         2.62262         6.35164
LJ           1.41274         6.40364         5.01894
LJ           5.14568        -3.32717         2.46489
LJ         -0.974047         4.47436         4.31798
LJ          -3.68671        -4.87202         -4.9176
LJ           4.26144        -4.90074        -2.17125
LJ           5.04662         1.14797         4.52352
