108
#Comment!
LJ          -1.17773         3.82735        -2.83851
LJ          -5.03423        -3.66108          4.8896
LJ           3.13563        -5.92658         6.23469
LJ          -5.28103        -4.28675       -0.268305
LJ          -1.02492        -2.03424        -6.41194
LJ           1.59333         5.12068        -5.89997
LJ           4.06698        0.333173        -5.83566
LJ           5.30435          5.6884         1.50514
LJ          -2.60795         1.78218         1.71881
LJ           4.06494          1.5122         6.22013
LJ          -5.73364        -3.45408         1.25668
LJ          -4.58292        -6.24393       -0.252438
LJ         -0.245064         2.10001      -0.0106582
LJ           1.77764        -5.31723         4.56379
LJ           2.78736         3.38506        -6.11037
LJ          -3.16731        -4.11589        -1.10011
LJ          -1.41537      0.00318658        -1.66563
LJ           6.16447        -4.36706        -2.53778
LJ           4.44531        -3.43167        -4.09461
LJ          -5.63327        -2.27984        -1.33933
LJ           3.55672         3.14451        -3.52116
LJ          -5.95524         -3.0813         -2.1491
LJ          -3.52458         5.94569         5.24759
LJ           4.38923         2.99824         3.82089
LJ          -1.78896       -0.675962       -0.850366
LJ          -1.29597        -2.51576         6.29124
LJ          -4.21546         4.34601         5.35452
LJ          -1.76756        -1.99391       -0.748245
LJ            2.6494        0.960996       -0.745393
LJ           3.81324        -2.59431         3.90387
LJ         -0.161001         2.10919         1.91981
LJ          -3.27432        -1.75054         -1.8762
LJ            3.5271        -5.79123       -0.207643
LJ          -5.15289        -0.20717          2.9873
LJ           -3.6644        -4.76181        -5.93012
LJ          -6.12843        -1.97719       -0.893431
LJ          -6.24333        -3.70843         -5.0336
LJ           4.55872         2.56218         2.45741
LJ          -6.07466         5.24073         6.30977
LJ          -3.50397         3.47991        -4.71582
LJ          0.689045         5.03822        -3.71094
LJ            -3.903        -1.44799        -1.82603
LJ          -5.23513         4.94173        -1.92775
LJ           4.20436        -0.31455         2.37925
LJ           -5.5243         4.06345          4.6366
LJ           -2.0065         5.61261        -3.96284
LJ          -4.68938         1.17314          4.9135
LJ          -3.60933         2.08169         1.60791
LJ          -6.12232        -3.37118         -4.9636
LJ           4.54139         -2.3939       -0.329653
LJ           4.01405        0.259021        -2.17282
LJ          -1.47638        -5.11276        -1.70229
LJ          -4.60487        -2.57212         3.40047
LJ           4.92134        -4.48262        -3.62712
LJ            1.1884        -2.38882         5.35998
LJ           5.08497          2.4953       -0.259697
LJ          -6.27933        0.380118         2.75898
LJ         -0.165887         6.23458        -3.27114
LJ           -3.5179        -5.98845       0.0268587
LJ           4.72087         2.20599         2.02017
LJ          -1.61686          5.8255        -1.46795
LJ          0.852823          2.5252         5.91979
LJ          -4.23343       0.0612801         6.29434
LJ          -3.01912         3.07198        -5.32332
LJ          -4.70135         1.22779         2.97654
LJ           3.41325         5.75201        -1.33159
LJ           -1.8198         3.69665        -2.89992
LJ          -6.40325        -4.61827         4.02699
LJ          -5.54879         4.51846        -3.49377
LJ          -6.17667         1.96978        -1.94674
LJ           -4.6317        -2.28948         2.73191
LJ           3.71144         1.98703         5.28763
LJ          -3.18976         5.46385        -3.15365
LJ          -4.66629       -0.449924        -6.43783
LJ          -2.55076         6.13035         1.37292
LJ          -6.05161        -4.92854        -5.20613
LJ          -2.69015         5.86211        -2.89809
LJ            2.1151       -0.866031        0.507154
LJ        -0.0968349        -2.01299       -0.850071
LJ          -4.97087        0.717119          1.5502
LJ           1.26383        0.607866       -0.729301
LJ          -2.09207        -3.80072         2.29918
LJ           3.94664         4.37273        -6.13279
LJ           2.41195         5.58302         1.84847
LJ          -3.22621        -5.04408        -1.01906
LJ            1.6075       -0.631185        -2.79827
LJ          -1.00554        -3.15907        -6.29761
LJ          0.560034         1.94047         4.10347
LJ           2.42273         3.39476        -4.03353
LJ          -4.54804        -4.77568         -5.2468
LJ         -0.253286         -1.3102        -5.18579
LJ           4.56201         5.58235        -5.44545
LJ          -6.35463         1.49466        -3.12382
LJ            2.7592        -4.99321       -0.749023
LJ          -1.44384         2.35845        -5.52484
LJ           3.82631        -3.54871         2.84897
LJ          -4.56451         4.33888        -3.02767
LJ           5.80398         2.34911         4.38474
LJ          -2.89063         4.51932         5.05012
LJ           -1.1181        -5.52808        -3.12982
LJ           6.35604          2.8917        -1.29306
LJ          -5.56203        -2.66538        -5.00744
LJ          -3.63466         6.29811        -5.67872
LJ          -5.76529        -1.70203        -2.54195
LJ          -1.76849        -3.82076         5.70219
LJ         -0.502471       -0.177565        -1.56872
LJ          -3.79446        -2.26456        -3.28905
LJ           4.46003         1.98531         3.24067
