108
#Comment!
LJ           4.25918         5.06618        -4.23897
LJ           -4.4966        0.408979        -4.04714
LJ          -4.14238        -1.13075      -0.0649195
LJ           1.74301         6.44007         3.49405
LJ         -0.682706        -1.37794        -4.06836
LJ           4.92575         6.32097         3.45008
LJ         -0.871427        -2.51001         1.15363
LJ           0.16579       -0.387082        -3.39046
LJ          -5.68265        -2.89814        -6.10214
LJ           1.34993        -3.15027        -4.38049
LJ           2.68879         5.74539        -5.73708
LJ           5.02041        -5.36955        -1.62982
LJ          -5.52483       -0.880514       -0.582862
LJ         -0.376729         4.27002        -4.20387
LJ           -1.0399         2.17922         -1.4731
LJ          -4.18564         4.42049        0.209844
LJ           1.66928        -1.44369        -4.02685
LJ          0.251181        -1.39677        -6.05182
LJ          -2.21413       -0.708438        -2.03371
LJ            2.3943        0.137597        -0.29746
LJ          0.275765        -3.63219        -4.20682
LJ           1.88791        -2.22088        -6.19604
LJ           3.91358          1.9404         2.53517
LJ          -5.91523        0.522407         2.92238
LJ           6.23184       -0.326254         -6.4116
LJ          -4.40271       -0.925618        -6.09206
LJ           -5.2171       -0.116151        -6.12652
LJ          -1.96619         3.11098        -6.15328
LJ           5.82863         1.76615         5.35119
LJ           5.70793         3.75203         3.55023
LJ         -0.639433          3.7966        -3.25947
LJ           1.91294        -2.31934        -5.17229
LJ           4.53918        0.334829         -5.2865
LJ         -0.326065         3.67652        -5.12396
LJ           1.51819        -4.16182        -4.79375
LJ            3.5595        0.118675        -1.96002
LJ          -1.98834         5.45982         3.35958
LJ         0.0705731        -1.50529       -0.161108
LJ          -2.02534          4.0054         1.16487
LJ          -3.59333       -0.295344       -0.311708
LJ           1.62884        -1.92813       -0.708614
LJ          -3.88521        -2.07283         -4.9009
LJ          -5.51747        -6.39606         1.10325
LJ          -0.77609        -3.34151       0.0849434
LJ         -0.124716        -2.48831       -0.841844
LJ          -5.27931         1.34323         1.97977
LJ           2.75157       -0.575008        -2.38506
LJ          -2.48564        -2.32473        0.361259
LJ          -6.32857         -2.5665        -3.94921
LJ           -5.7585        0.249295        -0.82296
LJ           6.41646         1.88765         2.04559
LJ             3.916         1.72709         3.54112
LJ           2.96919         3.40796        -6.43775
LJ          -3.88276         3.31433       -0.193143
LJ         -0.922225         2.97678        -2.45489
LJ         -0.593575        -2.76993         5.05617
LJ          -1.61178        -1.35013        -5.74799
LJ           5.40028         1.20263        -3.02141
LJ          -3.33828        -3.91578        0.777354
LJ          -4.52324       -0.460454        -1.00698
LJ          -4.53511         5.83843         4.41057
LJ          -2.14109         4.01907        -5.20474
LJ           3.25314        -5.11797       -0.759088
LJ          -4.54954         0.79218        -0.53773
LJ           -3.4924         2.52264        0.632402
LJ          0.326858         5.27722         2.02812
LJ          -2.80291        -4.71717        -1.06979
LJ            2.1022        0.521694        0.605119
LJ           2.68523        -1.61541        0.084867
LJ           1.62413         4.50808         1.98261
LJ          -1.27682        0.878905         1.68257
LJ           2.06577        -4.26265        0.125266
LJ         -0.990994        -1.64358        0.343312
LJ          -1.48185       -0.894022         1.23698
LJ          -4.15347         2.55031         4.12979
LJ          -4.36561        -6.20825        0.378559
LJ           6.37067        -6.13699         6.23161
LJ          -1.76331        -3.16607         1.01102
LJ           1.25073        -4.59306         5.81868
LJ          0.871809        -3.30712        0.993104
LJ          0.498775          3.7542         3.72564
LJ           3.79595       -0.975148        -2.14207
LJ           1.87745        -3.04323        -1.10385
LJ          0.502888        -3.26048          2.0329
LJ          -5.21438        -4.13263        -1.67323
LJ          -4.75398         1.05782        0.791232
LJ          0.372908         1.04671        0.889167
LJ          -1.44713       -0.892392        -1.25562
LJ            6.0922      -0.0572287       -0.442101
LJ         -0.312488        -1.83763         4.20118
LJ          0.186059        -2.07165         3.21645
LJ           5.11211       -0.591972        -3.60775
LJ           1.00951        0.472691        -1.39347
LJ           3.25337         2.03707        -1.79248
LJ           4.77543         3.31806        0.328779
LJ           2.78907       -0.293884        0.663515
LJ          -5.23765        0.240774        0.156233
LJ           -3.2765         2.09042       -0.648558
LJ        -0.0765302        -2.38622        -3.84803
LJ          -3.96734         3.10539        -1.31682
LJ          -1.31567        0.277987          2.6376
LJ           2.41623        -5.44591       -0.224325
LJ          0.684727        -1.01135          3.8298
LJ        -0.0551889         0.61478         2.20854
LJ           3.89747        0.288288         1.56795
LJ           2.89898         1.06809         1.83793
LJ           3.39471         1.36246        -2.49518
LJ           3.96039        0.919187         2.55145
