108
#Comment!
LJ          -5.07046        0.814013         2.04816
LJ           6.34372        -5.99725        -1.52645
LJ          -3.54364        -4.51718        -5.71309
LJ           3.27868         5.88414          3.0653
LJ          -3.37838        -3.26308          4.0273
LJ          -4.97153        -4.57125         2.79496
LJ           3.05143       -0.787853       -0.721657
LJ           2.98243        -4.24275        0.574933
LJ          0.628526        -1.48173        -3.28543
LJ          -4.55023         3.70484       -0.640385
LJ          -4.94899         1.44792          3.4915
LJ           3.57356        -6.16736         5.99754
LJ           4.23851         -2.3646        -5.26381
LJ           -4.1989         5.70483         4.79942
LJ          -4.60179        -4.63321         1.00425
LJ           1.57942        -4.73979        -4.70751
LJ            -4.248        -5.68465        -5.29357
LJ          -5.08407        -1.73933         6.01968
LJ           5.47274         4.17194        -4.52745
LJ         -0.736053        -3.18712        -1.54594
LJ          -3.92278         5.34732         2.96973
LJ           6.06262         0.85335           2.075
LJ          -4.99152         4.65736         6.25983
LJ          -3.21864         1.68199         1.66687
LJ            1.6339         3.28778         2.51438
LJ          -3.84467       -0.805965         4.11575
LJ           3.34274         4.72494        -2.44913
LJ            3.0516        -1.93801         -1.0546
LJ           4.71087         1.87205         3.52822
LJ          -6.40519          4.9772           3.883
LJ          -5.83545       0.0828009         4.76799
LJ           2.25542         3.81486        -5.60838
LJ          -5.55521       -0.809596        -3.44671
LJ         -0.536284        -2.60373         4.30909
LJ           6.30557       -0.193269         3.38128
LJ           3.47553        -3.76851        0.276435
LJ          0.238454         6.03568          0.1745
LJ          -5.45668        -5.52442         5.33545
LJ           1.73798        -3.98546        -1.44024
LJ            2.4484        0.957448        -4.89838
LJ          -6.09378        -2.46785        -6.00455
LJ          -3.45377         6.21838         3.69318
LJ           -2.0938         5.76797        -3.00474
LJ         -0.170104         1.74604        0.868415
LJ          0.954328       -0.622701        0.935222
LJ          -3.31267         4.00703        -2.09962
LJ         -0.643052       -0.321201         2.46947
LJ           3.05284         6.05215         4.51175
LJ          -2.00767         1.88547        -6.01108
LJ          -2.70978        -4.47777        0.788849
LJ          -2.15091        -3.36147        -3.78146
LJ          0.371407         5.61435        -4.12438
LJ          -2.56404         1.86528        -4.26829
LJ         -0.466017         3.81112         3.84367
LJ           1.27489        -1.02229       0.0422532
LJ           2.15549        -2.57226        -3.52049
LJ          -1.50805         3.79921         1.41403
LJ          -5.13457      0.00409159            4.72
LJ           5.27495      -0.0202703         1.03575
LJ          -2.54359         4.86267       -0.343315
LJ          -4.65621         -4.7301        -4.19343
LJ          -2.95914        -2.09297        -4.59025
LJ           5.11383         2.48792        -1.76348
LJ           1.53469         3.34712         4.95394
LJ           6.43027        -4.03718        -3.01744
LJ            -4.254         -4.6636        -0.33832
LJ           6.16543         3.05781       -0.773621
LJ          -1.57667        -4.44255        -1.65214
LJ           4.49029        -5.59742         5.01205
LJ         -0.913431        -5.25322        -5.42358
LJ           4.80053        -1.06863        -6.17418
LJ          -2.41909         5.73066         2.64087
LJ           3.59527         3.75819         5.26384
LJ          -4.36879         4.83545        -1.49962
LJ          -1.18145        -0.43325         3.19626
LJ          0.681308        -2.97156         5.52203
LJ          -3.78814         5.03233       -0.186052
LJ         0.0404952        0.140574         5.32579
LJ            4.2184        0.732875       -0.415334
LJ           4.57686         4.48481      -0.0258589
LJ           4.60818         5.13709        0.590765
LJ           -2.0042        -2.83008        -5.35107
LJ           3.60591       0.0757447       -0.257579
LJ          -4.29721          1.2831        -6.11479
LJ          -4.97704        0.581961        -6.31852
LJ          -3.91665        -5.55576         2.16668
LJ           4.53034         5.70411        -6.25809
LJ          -2.10726         5.30082         2.93967
LJ           1.30088       -0.912064        -5.51781
LJ          -3.19254        -2.78935        -3.30099
LJ           -2.1968         1.71547        -1.95095
LJ           -1.9311       0.0563509         1.54694
LJ           1.95291        -4.27801         3.61159
LJ          -4.58991         1.85573         3.78031
LJ           2.10564          3.0343         2.04176
LJ           2.13359        -1.49946         1.16931
LJ           3.78427        -1.12252         5.80736
LJ           1.42277        -6.27751        0.602688
LJ         -0.720351        -1.85311         5.47479
LJ           5.35205        -2.70162        -5.40068
LJ          -6.39816        -3.90316         1.44372
LJ           4.07621         1.90212         1.75526
LJ         -0.323123        -2.91032        -1.64737
LJ          -4.15063        -2.66142         5.75385
LJ          -4.45033        -5.66209       -0.454023
LJ           4.45488         3.40545         2.90143
LJ           4.99731        -5.97918         2.10326
LJ          -6.04881         4.76688         3.47789
