108
#Comment!
LJ           4.26126        -5.08683         6.21745
LJ          -5.40705         5.43048          1.4856
LJ           3.97475         -1.2307         -4.3457
LJ         -0.486917        -4.06419        -5.75487
LJ          -4.00123         4.26281        -5.06008
LJ           5.31478         1.62848        0.719452
LJ           2.27629        -2.68697         3.31493
LJ           4.51862        0.864932         6.08337
LJ          -3.75557        -5.50892        -4.47702
LJ          0.603543         4.12501        -6.23421
LJ          -5.20623        -0.99883         2.51277
LJ           -5.7754         5.03026         2.35916
LJ           5.37173         1.97807         5.18864
LJ           3.54514        -4.21472        -6.05844
LJ           1.00376        -1.83143        -1.95675
LJ           4.65456         2.13971         6.13813
LJ          -2.56557         3.01198         1.23587
LJ          -3.92446         2.52412        -5.99166
LJ           0.67451         6.43163        -3.38754
LJ           3.85366        -2.10557         6.11305
LJ           1.83466        -3.50188         1.48912
LJ          0.479714         5.81834       -0.910139
LJ          -5.24796         4.19239       -0.349803
LJ          0.568292        -6.06783         3.38203
LJ           6.43953         2.18658          5.7924
LJ          -4.37489        -3.46153        -3.25891
LJ             3.819         1.27303         3.64408
LJ          0.715774         1.39763        0.602023
LJ         -0.508447        -5.73146         6.24705
LJ           6.12562        -5.57972       -0.565964
LJ          -2.83863        0.425285        -4.60481
LJ         -0.496584        -5.27788        -3.82296
LJ          -6.10751         2.41922        -5.32837
LJ          -4.17364         6.14503        -3.82301
LJ          -3.86463        -5.62675        -1.79975
LJ          -2.53608         1.44884        -4.96349
LJ           5.78387        -1.54466        0.463954
LJ           5.55098         2.60735         1.50729
LJ           1.42012        0.433008          2.9136
LJ           4.22804         5.05138        -3.67178
LJ          0.718726        -3.21944        -3.76287
LJ            5.3144        -5.80882       -0.970825
LJ          -2.34754         5.76299          1.8612
LJ           1.30149         6.23356        0.220951
LJ           2.74241         2.27171         5.29716
LJ           -5.8796        -5.90375        -5.66696
LJ          -2.94379          4.9525        -5.63225
LJ          -4.62359         5.40615          5.6393
LJ          -4.94706         1.63883         1.53505
LJ          -5.82199        -6.26488       -0.699619
LJ          -2.54044        -5.13599        -5.08128
LJ           5.82134         4.87221        -1.36404
LJ          -6.07807        -3.65755        0.473287
LJ           4.32358        -3.64657         4.64988
LJ         -0.659419        -1.68051        -4.14616
LJ          -1.42344       -0.709421        -1.17852
LJ          -5.28205        -1.74875        -4.46775
LJ           5.44797         2.13768        0.479175
LJ           3.53067         2.43823         1.85124
LJ           5.74268         2.43304         2.19261
LJ           5.07365         3.60672        -3.34162
LJ          -1.22399         1.30655        -4.99448
LJ          -5.76071          -1.581         2.92867
LJ         -0.260121        -5.51061         4.37689
LJ           4.23419         3.63043         3.07781
LJ           2.07354        -2.91516         5.05378
LJ          -2.75626         3.82023         4.48695
LJ          -5.53455        -1.48106          -4.268
LJ          -2.75368        -5.47842       -0.600711
LJ          -3.44685       -0.775937         5.90227
LJ           4.36436        0.734885         1.31172
LJ          -1.41523         4.00444        -5.57627
LJ          -2.34502        0.876892        -1.62123
LJ           5.68474         3.01571         4.82495
LJ           -2.2218          -4.269           6.357
LJ          -2.82834        -4.52532         1.64386
LJ          0.749183        -4.64126        -2.52059
LJ          0.148452         1.63359        -5.50507
LJ          -2.26036        -3.86186          -5.923
LJ           3.32685        -5.87418        -4.72346
LJ          -3.21318        -3.84421         3.01898
LJ           6.19483         4.15211        0.462777
LJ           1.44738        -2.34326        0.639333
LJ          -6.29794        -3.02119       -0.746192
LJ           3.55772        -3.77965         6.01629
LJ           3.81826         4.11777         6.08552
LJ          -4.67663        -1.45711       -0.640785
LJ           3.94187         -4.6798         3.43341
LJ           2.40096          2.2409         3.82663
LJ           4.50244        -6.37857          -1.649
LJ           4.99482        -2.41598        -5.34481
LJ         -0.306827        -5.46101        -5.30244
LJ           -4.9446        -4.74203         3.15728
LJ           -1.1189        -1.47163        -3.71819
LJ           4.88298        -4.35757         6.03149
LJ          -4.93517        -2.88309         2.47913
LJ          -5.36262         6.40852        -5.67491
LJ          -1.97291        -6.27229        0.310745
LJ          -2.39805       -0.789992         5.54351
LJ           3.20048        -5.05666         1.36944
LJ          -3.00586        -5.65573        -3.96204
LJ           1.90075        -5.49676          2.2068
LJ            1.4886         3.69711        -4.77419
LJ           -2.7973         2.84298         6.23479
LJ           2.49739        0.367114         5.51359
LJ          -6.01552        -5.47436         6.16152
LJ          -5.87912         3.38214        -6.22208
LJ          -3.24586         5.09305          4.9698
