108
#Comment!
LJ           1.99464         2.99136        -4.54806
LJ          -5.68002          0.7279        -4.51842
LJ          -6.36074       -0.166851        0.300111
LJ           2.60295         5.98497        -6.41095
LJ           2.34482       -0.727332        -2.39352
LJ           6.45931         3.88374         1.45348
LJ         -0.376614        -2.13456         0.82807
LJ           1.10515       -0.201073         -3.7775
LJ          -4.16164        -5.03786         6.08743
LJ          -0.54888        -4.22659        -5.08298
LJ           2.11108         4.24486        -5.45067
LJ          -6.34296        -6.40126        -1.51594
LJ            5.6759        -1.35844      -0.0641206
LJ          0.745183         5.73891        -4.92141
LJ        -0.0355185         4.00452        -2.41881
LJ           -4.6226         2.77991         1.57262
LJ           4.02052        -1.36398        -4.45614
LJ         -0.129598        -1.81581         6.04375
LJ          -3.01077       -0.891246        -1.97092
LJ           3.69195       -0.583598        0.967321
LJ         -0.624647        -3.14726        -4.14501
LJ           2.03572        -3.60156         5.03789
LJ           4.38278         2.61693         2.77001
LJ          -3.69602         2.66856         3.71003
LJ          -6.16824        0.398252         4.32135
LJ          -5.34062        -1.37163         5.09848
LJ          -6.04647        -1.94879         5.68573
LJ          -2.86697         3.79601         5.04804
LJ           3.73248         2.13078         4.53007
LJ           3.20984         4.74398        0.777138
LJ          0.363661          5.0164         -4.0243
LJ           2.41165        -3.67737         6.40898
LJ            5.3062         1.68891         6.24814
LJ         -0.922618         5.36115        -4.93568
LJ           4.63662        -2.28204         5.60781
LJ           3.80221       -0.521593       -0.422472
LJ          -2.65352         5.37961         5.09381
LJ          0.469193        -1.17268        0.900154
LJ          -2.01811         1.78478         1.23073
LJ          -5.22967        0.826373        -1.03648
LJ           2.20566        -1.88162       -0.642343
LJ          -5.63539        -2.49238        -6.20656
LJ          -5.64872         4.02653        0.584717
LJ         -0.947104        -3.00244         0.95547
LJ          0.522722        -2.48037        0.119182
LJ          -4.98042          1.9276         3.03791
LJ           3.91352       -0.255937         -2.5182
LJ          -2.51833        -2.62403        -1.61901
LJ           5.26128        -3.41312        -4.83229
LJ           5.65362      -0.0593494       -0.436659
LJ          -5.70422        0.726634         2.67984
LJ           1.77736         1.96616         6.22925
LJ           4.44198        0.315221         4.57783
LJ          -6.24032         1.60657        -0.21059
LJ          -1.39617         3.76412        -2.64896
LJ         -0.994715        -2.81687         5.98583
LJ          -2.41197      -0.0657124        -3.93318
LJ          -6.25971         1.39525        -3.86175
LJ          -4.14881        -5.08982         2.02529
LJ          -6.45222        -1.02202       -0.822055
LJ          -4.82233        -5.33713         5.15306
LJ           -2.0884         4.83806        -6.24403
LJ            4.4523        -2.94305        -2.77154
LJ          -4.39831         1.03923        0.565657
LJ          -3.67876         3.45257        0.403148
LJ           1.61527        -6.44872         4.13436
LJ           -3.6474        -1.62527        -1.14777
LJ           2.26803         1.66967         1.84736
LJ           3.03113        -2.62504       -0.920673
LJ           2.72389         3.73639         2.36139
LJ          -1.80586         1.05563         2.63646
LJ            1.3825        -1.75044        0.193124
LJ          -1.76706        -2.69697       0.0450492
LJ          -1.48818        -1.84542         1.33292
LJ           -5.0104         3.92308         4.45343
LJ          -5.82566         5.36413         0.82567
LJ           -3.0506         6.41642        -5.17066
LJ           -1.9121         -2.4781         2.04619
LJ           1.68861         6.45021        -5.89926
LJ         -0.440587        -3.46858         1.71731
LJ          0.329324         1.45288         4.30918
LJ           3.76214        -2.22236        -2.08315
LJ           1.71763        -2.06662        -1.56577
LJ           -0.8545         -2.3931         1.81419
LJ          -6.30577         -4.7091        -2.72035
LJ          -5.95473        0.490282          1.1739
LJ          0.920819        0.810329         1.83891
LJ         -0.819173       -0.603579         -2.2058
LJ           4.83209       -0.604021        -0.75996
LJ       -0.00406442        -4.00221         5.11105
LJ           2.36251        -3.92114         3.76509
LJ           6.31606        0.514218        -1.31042
LJ           1.86154         1.86121        -2.01504
LJ           3.16337         4.03057        0.166372
LJ           6.11899         3.81454       -0.746261
LJ            3.8629        -1.54895       -0.283572
LJ          -5.37705        0.873278       0.0864965
LJ           -4.4411         3.38127       -0.949027
LJ         -0.609398        -2.44794        -1.91969
LJ           -4.4086         3.41464        -2.25042
LJ          -1.00293        0.456527         1.98116
LJ           2.13669        -2.77255       -0.338006
LJ           1.45101       -0.744663         4.86851
LJ         -0.418906         1.14878         1.16387
LJ           4.19188        0.513662         1.91465
LJ           3.88407         1.52016         1.59627
LJ           4.73731          0.3529        -2.70409
LJ           4.30164         1.40342         2.72575
