108
#Comment!
LJ          -2.92275        -1.27282         -1.5081
LJ          -5.45185        -1.15826         4.81547
LJ         -0.665422         5.15229        -3.26614
LJ         -0.661932       -0.866161        0.767308
LJ           5.85637          6.3245        -3.52817
LJ          -3.63468       -0.087663         1.06427
LJ           5.63418         5.82526       -0.245176
LJ          -1.10939         4.65223        -6.12387
LJ          -4.53802        -4.61058        -0.19776
LJ          -5.08335         1.46438        -3.20612
LJ          -2.28662        -2.04839         3.56759
LJ          -1.75401        -1.77577       -0.348588
LJ          -4.23917          4.9338        0.500189
LJ           3.25758        -0.62029        -4.64337
LJ           3.04649        -1.80701        -1.41458
LJ           1.61787         5.82496        -2.80649
LJ          -5.69195        -4.35733        -5.73935
LJ          -3.53813        0.535401         3.48983
LJ           2.32949        -4.22335        -5.20816
LJ          -2.18348        -6.38669        -6.32031
LJ           5.60335       -0.437491          5.5887
LJ           5.23578        -1.53469          4.2199
LJ         -0.115809         3.83547        -4.64148
LJ           3.74105        -2.28825        0.274362
LJ            5.0138         3.74299        0.176705
LJ          -4.36452         4.32371        -4.08334
LJ          -4.32654        -1.52935        -2.31717
LJ          -2.47856         2.14609          1.2821
LJ          -1.14474         3.51639         4.47461
LJ         -0.485515        -5.55414         4.00445
LJ           5.10478        -5.85663         2.86142
LJ          0.129353         1.61416        -1.14172
LJ           4.27974         1.62965         5.05107
LJ           -1.6628        -4.69065        0.569405
LJ           3.05697        -6.24941         2.20221
LJ           6.22558        -2.33898         3.91698
LJ           1.59631        -2.24679        -5.91578
LJ           2.12221        0.439545           1.067
LJ           4.76654         2.46259       -0.963395
LJ           -3.1863        -4.91898        -4.47633
LJ           2.04234        -3.46446         1.71938
LJ          -3.84768         2.16542         6.43599
LJ           5.47768        0.862644        0.265136
LJ           5.62546        -5.54462        -0.58888
LJ           4.95049        -4.91335         -2.3423
LJ           2.38679          5.8295         4.57955
LJ          -3.22111        -3.56753         4.80288
LJ           1.73152       -0.530258       -0.570068
LJ          -5.74722        -2.71517        -4.27751
LJ          -5.56265         5.43665        -3.48875
LJ          0.876989         1.62551         5.19986
LJ           1.87665        -4.47881        -3.72236
LJ           3.45727          5.2722         2.22008
LJ           1.20224         2.03259        -2.28495
LJ         -0.363406      -0.0555632         5.63312
LJ          0.116197        -1.71135          5.7133
LJ          -4.91284        -1.61091         6.46247
LJ          -5.36896        -5.44706        -5.66084
LJ          -1.67529         3.90156        -6.04099
LJ         -0.508182         1.37051        0.394146
LJ           3.96897        -5.98569       -0.506301
LJ          -2.01084        -1.75273        -4.54906
LJ          -4.25563        -2.20564         1.36684
LJ         -0.243561         3.58128        -4.26564
LJ            6.4322         1.83287        -2.66237
LJ           3.46607         5.66063         6.03897
LJ           1.32148         1.79106         -2.5484
LJ           3.65229       -0.496351         5.49878
LJ          -2.92939        -1.96841         5.28456
LJ          0.786371        -5.98587        -5.63495
LJ          -2.77805         4.13029        -3.52949
LJ          -3.32561        -6.37368        -5.63072
LJ          -1.00131       -0.154796        -2.04804
LJ           5.88585        -2.71878         3.63758
LJ           1.50502        -2.61211         1.00511
LJ         -0.487791        0.921227         5.71745
LJ          -2.81432         2.08595         1.38005
LJ          0.822361        -5.57805        -1.42274
LJ           6.27324        -5.49506       -0.319072
LJ            3.3764         4.26042        -1.78591
LJ          0.203921         1.57835         4.10724
LJ           -3.0775         4.04907        -6.15634
LJ         -0.462767          6.1272          1.6958
LJ           4.74751       -0.526158        -4.61895
LJ          -1.97408         5.29884          1.3877
LJ           4.58818       -0.020205        0.712255
LJ          -5.40958        -5.26521        -3.68648
LJ          -5.88788        -6.27995         1.16848
LJ          -4.82767        -4.83098        -1.65514
LJ          0.470178        -4.22855         1.51921
LJ          -4.52939       -0.247274         -5.1863
LJ           5.62677        -5.74365          0.8828
LJ          -1.39931        -1.91957        -3.46328
LJ         -0.393111        -3.41895          1.3484
LJ           5.86818       -0.346322         1.01964
LJ           5.87553         1.29505        -3.53183
LJ           3.93095         5.79599         1.53766
LJ           -4.7612        -3.69932        -1.29826
LJ          -4.91916         3.69395          -5.671
LJ           -6.1563        -5.22924         5.96772
LJ           4.79679         5.01978       -0.656284
LJ            3.9457          -4.558         1.00352
LJ           2.35396        -4.35631         6.14888
LJ          -4.28539         2.42154        -6.27695
LJ           3.26351        -1.19467         2.13285
LJ           6.15949         4.73861         -1.0932
LJ          -1.91862        -4.07692         2.26506
LJ          -4.58887        -4.08913         3.43905
