108
#Comment!
LJ         -0.709562         -3.2346         1.67088
LJ           2.07582        -2.91917         4.19455
LJ         -0.551838        -5.50336         5.37467
LJ          -1.12538        -3.53976        0.615249
LJ          -5.50875         2.21022          2.5191
LJ          -2.29072        -2.05334        -1.19055
LJ           4.87627         2.44452        -5.08713
LJ           3.46074        -2.39478          -4.596
LJ           -4.2312        -2.52856         3.20155
LJ          0.305013        -6.13985        -6.35917
LJ           2.99407        -2.01701         5.74297
LJ          -3.75663       -0.387425        -5.91685
LJ          -4.85286       -0.968423        -1.19721
LJ          -6.10188         5.19237         1.06075
LJ           4.76052        -1.91644        -6.36906
LJ          -2.52113         3.80377       -0.590404
LJ           3.30115        -2.24012        -1.99595
LJ           6.43778         -4.0273        -5.19077
LJ          -1.47686        -4.25468        -1.03312
LJ          -2.15695         6.24123         3.28036
LJ          -5.23009         3.38504       -0.235744
LJ          -1.76349        -1.59261       -0.830079
LJ          -2.62944         3.80268       -0.596733
LJ           5.17173        -4.43165        -5.80224
LJ           1.94151         1.74222         1.73004
LJ            5.2274        -1.35026        -5.87746
LJ          -2.33418        -6.04709         2.59482
LJ           3.70289        -5.42071        -2.06516
LJ           4.87195         5.77266        -3.72147
LJ          -1.49288        -3.01163         6.07265
LJ           1.46562       -0.507088         -4.6075
LJ          -0.57244       -0.374618         1.70563
LJ           -2.8834       -0.914365        0.333408
LJ          -0.35089        -3.43283         4.19321
LJ           4.21528       0.0755449        0.766144
LJ          -3.01514        -1.85676       -0.816142
LJ          0.809493         1.78417         2.49236
LJ           4.78513       -0.799237         4.46445
LJ           2.94088        -6.11421         2.96057
LJ         -0.847627         1.94973         2.34926
LJ           1.66242         1.41263         3.87632
LJ          -6.03068         5.74798         2.82075
LJ         -0.469656         2.00667       -0.105536
LJ          0.938987      -0.0774052         3.17702
LJ          0.788689         2.76252         -4.6781
LJ          -1.34472         2.39599        -1.09983
LJ           5.64918         4.85456        -6.30054
LJ          -5.41982         1.71162         5.28572
LJ           3.16112       -0.660912        -3.41125
LJ           5.20911       -0.554678         4.84166
LJ           6.04512         0.48876         1.42647
LJ           2.95575         3.26016          5.9352
LJ           1.25415          2.1897        -3.47858
LJ           3.16753        -2.92868         3.47632
LJ          0.725067        -5.49196        -4.06657
LJ           2.25251        -5.62831         4.94272
LJ           2.49981        -1.53753         -5.5699
LJ           1.47294        -4.71312         -1.2604
LJ          -6.36672         1.15547          4.4626
LJ           2.64585         2.00731         -2.2912
LJ          -1.64897         2.55445        0.664554
LJ           4.86191        -3.61196         2.61916
LJ          -5.94469       -0.278186         3.04942
LJ           4.80408         3.78605        -5.75726
LJ            5.5551         6.12228       -0.316787
LJ           6.22364        -2.01475         4.08689
LJ         -0.651358         1.03616        -6.32883
LJ          -4.51411         3.13379         3.54678
LJ           5.14093         4.76026        -4.91847
LJ           5.27481         1.24599        -2.75548
LJ          -5.34176         2.48445        -3.00495
LJ          -1.09141        -1.30892         1.15974
LJ         -0.967655         1.15488         3.03504
LJ          -1.69897        -4.80316        0.264349
LJ           3.40843        -5.57006         0.82952
LJ           6.11889         1.99192        -1.50573
LJ           1.82225        -5.13345         3.75677
LJ          -5.33806        -6.10209        -2.23736
LJ         0.0457785         2.40226         -2.1542
LJ          0.510783        -5.15097       -0.386247
LJ           5.28149       -0.266983        -5.64923
LJ          -2.39755        0.776888         1.28919
LJ          -4.21449        -1.04944         2.41235
LJ           3.34849         5.65638         2.95631
LJ           1.88486         1.20258         3.67877
LJ          -5.94617         5.27037        -1.42197
LJ          -2.77171        -5.22188        -2.42404
LJ          -3.08464         4.46663        -4.60558
LJ          -6.38367       -0.785757         -2.7614
LJ           2.99074         4.76838         3.54461
LJ           4.83663         5.22599        -2.84937
LJ           1.57588        -5.02894         5.11888
LJ           4.03205         1.45136         5.88552
LJ          -2.79464        -2.94955        0.127867
LJ         -0.635561         6.35396        -4.58086
LJ          -1.78727         1.71857         3.68269
LJ          -2.68356         4.95038          0.4424
LJ           0.77726         5.73583        -2.92009
LJ           3.26449        -5.30157          4.8101
LJ           4.44503        -4.32313        -5.94622
LJ           -5.0221        -5.87509       -0.119608
LJ          -3.72922       -0.202217        -1.35983
LJ          -6.25543         2.08288        -1.46868
LJ         -0.257754        -5.42623         1.19233
LJ           1.97445        -1.92568         6.16565
LJ           2.05779        -2.56835         2.96244
LJ           5.88929        -5.31019        -1.45583
LJ             4.831         5.17109         1.59575
