108
#Comment!
LJ           1.66101         3.32643        -3.03562
LJ          0.913282         1.34895         4.75053
LJ           2.99079         6.06869        -0.74183
LJ          -5.65409      -0.0690587        -4.75485
LJ          -1.12658        -3.92813        -4.72185
LJ          -6.13012        -1.05762       0.0058941
LJ         -0.667504         3.45036         6.07684
LJ           5.45498        -1.95162           3.121
LJ           3.91691        -4.48472          2.2557
LJ          -4.86876         -3.0591        -1.90815
LJ          -5.89853         6.40442        -5.74135
LJ          0.842956        -1.55141        -5.83338
LJ          -1.49363        -5.35277        -2.65338
LJ           5.08843       -0.936442        -3.16638
LJ           2.06404        -3.67065         2.52368
LJ           2.65874        -2.18817         1.11342
LJ          -4.37911         -2.6158          6.2894
LJ           2.20882        0.275744         2.05684
LJ         -0.829126        -2.58547         2.35801
LJ          -5.58517          6.1424          3.5454
LJ          -5.87076         2.99996        -3.98929
LJ          0.277236        -3.99316         4.21284
LJ           1.20492        0.446507         1.87264
LJ           5.91389          1.6325        -2.19892
LJ          -5.23872        -1.26442        -1.63493
LJ           4.60204          -3.393        -4.07238
LJ          -2.00047       0.0535962        -4.55842
LJ           2.25958         3.77347         -2.1375
LJ           4.47205        -1.86893         1.20629
LJ           6.28931       -0.770733         1.49955
LJ          -1.97719        -5.08385         1.83164
LJ          -3.37795        -3.33622        -1.73788
LJ           5.15998        -5.57654         1.42847
LJ          -1.03766         2.06092        -4.03616
LJ         -0.805701        -0.96943        -1.54319
LJ          -1.99126        -1.38562         3.47516
LJ           5.48214        -3.63439         -1.7105
LJ           2.29363        -3.76515         4.31149
LJ          -3.82865         4.97012        -4.27462
LJ           5.54601        -2.60207        -2.69463
LJ          -3.43577         1.83717        -5.63056
LJ          -2.44757        -2.57189         5.99222
LJ          0.780939        0.799359        -3.53485
LJ          -1.23606         3.27616         -5.8212
LJ          -4.12794        -3.50914         1.42719
LJ            4.5268         2.94781         2.38652
LJ           5.98396        -1.48055       -0.381336
LJ          -1.12791        -3.41099         1.28131
LJ          -4.15099        -4.00452         6.05847
LJ           -2.9232         -3.1508         4.14803
LJ           -0.2633        -3.47422        -1.43084
LJ          -5.04101         6.35577        -6.10335
LJ          -5.92634        0.205948         3.20132
LJ          -6.23178        -4.80572         4.68997
LJ          -1.92143         4.62699        -2.92177
LJ            6.0738         2.33954       -0.787463
LJ           2.77683       -0.065006        -1.63412
LJ          -3.99733        -6.28381         1.92251
LJ           -3.0159        0.131697         3.72622
LJ            1.1719         5.64998        -1.03411
LJ           3.90426          1.6933         3.45317
LJ           6.36927         5.20915         2.73745
LJ          0.664784       -0.675684        -4.87534
LJ           6.38111       -0.204845        -3.99777
LJ          -6.01185        -4.17573        0.852969
LJ          -1.92225        -1.31388         4.20878
LJ           3.65926         5.26617       -0.429767
LJ          0.315724         3.46292        -2.41029
LJ         -0.686396        -3.85193        0.797469
LJ           3.52054         3.27073        -6.02685
LJ          -3.20963         4.14183         3.08935
LJ           5.08109         3.04792         3.15723
LJ           3.11637         3.82112       -0.654842
LJ         -0.702794        -6.32795         4.99027
LJ          -4.70033         2.19888       -0.941355
LJ          -3.23995        -3.67391         4.21265
LJ          0.107663        -2.19007        -1.99498
LJ          -1.51819         5.32359       -0.718351
LJ          -3.97163        -3.73965        -4.19353
LJ          -4.22471         1.02269       -0.166172
LJ           0.31037         -2.1202        -6.39053
LJ           3.52574         2.44567         1.98415
LJ            4.9592          4.7958        -4.29774
LJ             4.095        -4.37501         4.57513
LJ          -6.12745         1.19651         5.13339
LJ           1.68561        -6.14425       -0.211515
LJ          -4.08708         3.10222        0.622912
LJ          0.245041        -4.34679         3.94008
LJ            0.4352         6.43773         -1.4564
LJ           5.35877        -5.48337         5.63967
LJ          -6.28261          5.5477        -1.32979
LJ          -3.32911       -0.261525         3.84812
LJ           6.08973        -5.73118         2.01575
LJ           4.32778        -4.93289        -5.02859
LJ           2.06827        0.269538        -1.84605
LJ           2.81379         5.83302        -4.06786
LJ          -4.60054         2.52852         -1.2223
LJ          0.423011        -5.10604        -5.30127
LJ          -3.01595         2.54318         1.58051
LJ          -3.96957        -1.27004        -1.86312
LJ          -2.92958         4.50063        -5.28743
LJ          -1.19926         4.62878       -0.471792
LJ           2.15457       -0.287994       -0.403358
LJ         0.0224198        -6.23849         3.30881
LJ          -1.34538        -2.64985         6.04796
LJ            2.8755        -4.50091         6.12362
LJ          0.960215         5.18277        -5.24882
LJ          -5.27668        -4.23121        -2.71962
