108
#Comment!
LJ         -0.860362        -5.28819         4.58171
LJ          -2.96795         1.38367        -2.90312
LJ           3.37558        -3.46315         2.73351
LJ          -1.32938        -4.57635        -4.04842
LJ          -4.73335         4.94117         4.33947
LJ           3.20346        -1.46589         3.94785
LJ          -3.16487        -3.17053        -5.75014
LJ          0.624837        -4.23585         2.00416
LJ          0.976535         6.39314        -2.11452
LJ          0.430499         1.39654         4.95233
LJ          -3.60535       -0.929051        -4.72687
LJ           2.72761        -3.97048         5.86847
LJ           5.29661         1.40938        -4.85259
LJ          -4.70787        -6.46104         -3.8611
LJ          -1.44176        -4.51947        -5.64935
LJ           3.03562         2.72192         3.93579
LJ           -4.7361        -1.79629          5.9353
LJ         -0.256466         2.09299         2.84691
LJ           1.43461        -2.66212       -0.111657
LJ           5.80681       -0.482918         5.70873
LJ          -1.18237         4.22292        -5.54114
LJ           5.85485        -3.45509         1.45764
LJ           2.24867        -3.26441        -5.88255
LJ           3.57086        -3.01543        -1.37178
LJ           6.43683         1.28525        -5.81596
LJ         -0.962184        -1.54947       -0.334097
LJ           3.77676        -2.47636         3.08899
LJ          0.952732         5.13014      -0.0476656
LJ          -5.79618         -1.9573         4.73358
LJ           1.22778        -2.47441         3.50243
LJ         -0.699888         6.29142        -4.00127
LJ          -1.32427         2.26047          1.7423
LJ           4.38733         1.99185        -2.35354
LJ           3.65646        -4.54834         1.01037
LJ          -4.76246         1.65447         1.01711
LJ          -5.74725         -2.6844        -4.54889
LJ           4.40856         2.86352        -1.25163
LJ          -5.57115        -1.80318         5.10794
LJ          -4.07099       -0.687451         4.00463
LJ           6.29445       -0.152123         2.47357
LJ           6.16663        -5.87839         1.60841
LJ           5.58939        -5.83174        -5.59477
LJ           3.67807        -2.13479         -1.8265
LJ          -6.17358         1.91163         6.24335
LJ          -2.99249        -5.24292        -4.77143
LJ          -3.65404        -3.42318         5.78887
LJ         -0.931116         -6.2358         4.19191
LJ           1.87282        -1.11677         2.32581
LJ          -3.42664         0.46594        -1.49734
LJ             5.582         2.87783        -2.48853
LJ           2.16065         4.08131         3.07345
LJ           4.15424        -5.69569         3.29608
LJ         -0.229815        -6.41602        -1.87489
LJ           6.05989        -3.26144        0.706767
LJ           4.12159         3.13603        -4.24554
LJ         -0.824273         5.13283         3.42558
LJ          -4.69481        -6.22079        -3.89075
LJ          -5.07305        -6.08699        -3.23002
LJ          -5.65305        0.281245         3.12488
LJ          -4.73565       0.0167854         2.73777
LJ          -5.39369         4.13434        -3.88665
LJ           2.03967        -2.65065          5.6554
LJ           1.22795        -3.95527         4.64235
LJ          -1.35679        -3.26416        0.439351
LJ          -1.96526         -4.5344         4.68317
LJ         -0.412586         -3.1242        -3.54201
LJ          -1.16617       -0.845646         -5.2215
LJ         0.0941111         2.71555         2.18025
LJ           5.54983        -5.96992        0.294962
LJ           4.86881        -1.58731         2.69476
LJ          -4.82625         2.21248         2.41573
LJ          -1.66922         4.77299        -5.96151
LJ            1.6584        -4.33636        -1.79783
LJ          -3.38901         6.08714        -5.16609
LJ           5.37879         -3.0045        -1.60519
LJ            -1.544         3.74656         4.61816
LJ             5.694        -5.14477        -4.38317
LJ          -1.26857        -6.45254         4.19475
LJ           -2.8453         4.74085        0.581762
LJ           5.88871         5.32668        -5.71992
LJ           2.60794         -0.2462        -4.64229
LJ           3.30302        -5.66272          2.1797
LJ           6.17558         1.99481        -1.86757
LJ          -5.47376         5.93282         2.80222
LJ         -0.117336        -2.26241         4.54586
LJ           5.69596        -1.86717        -4.33491
LJ           3.06232         6.00735        -6.22211
LJ           4.81412        -2.29106        -5.37924
LJ           4.34633         -3.1251        -5.41019
LJ           5.38648        -6.04959        -1.43352
LJ           2.05277        -1.81569         3.60678
LJ           -4.0647        -1.80568        -2.68191
LJ          -3.53486        -6.38825         -5.2172
LJ           5.86956         5.66829         2.41396
LJ          -6.05906        -1.25614        -4.61103
LJ           2.73546         2.04666        -2.64482
LJ          -5.53291         3.28989         -6.1171
LJ           2.57818          2.5985          4.4692
LJ            2.3846        -6.40754         2.46385
LJ         -0.693383         4.13236        -4.71466
LJ           2.90424          -2.682        -5.18768
LJ           2.96006        -1.98856         4.83295
LJ          -6.19587         3.63821        -1.36996
LJ           5.68637         2.83262        -1.87359
LJ          -5.10508         1.29006        -4.43153
LJ          -5.07776         3.66905        -3.96437
LJ          -4.47414       0.0953832       -0.884059
LJ          -2.13023         1.06683         2.38417
