108
#Comment!
LJ          -3.18944        -3.36391         4.50225
LJ            2.9085        -2.09332         -4.7815
LJ          -4.23247         2.94449       0.0740471
LJ            1.8567        -3.03444         5.80796
LJ             4.127         4.95007        -3.90267
LJ          -1.09561         1.84242         1.72232
LJ          0.484233        -3.43446         3.90326
LJ          -2.65315        -5.03453         4.57107
LJ           2.80668         1.69678         1.93006
LJ           2.12001       -0.249386         5.62184
LJ           6.31968           -6.44         1.19647
LJ           1.24888        -2.67219        -6.45271
LJ           2.71907         6.25398       -0.358801
LJ          -4.14805        -5.68772         5.51668
LJ          -5.25035         -2.8751         -6.3503
LJ          -5.36526         -1.2896          1.6581
LJ          -5.97178          6.0411          6.4347
LJ           4.41554        -2.97643        -2.19957
LJ          -3.52759         -2.1888        0.175688
LJ           4.55363       -0.985529        -2.49195
LJ          -5.80593         1.41161        -5.18202
LJ           6.37271        -2.60276         -6.1093
LJ           1.55244       -0.966829        -5.31706
LJ          -2.52613        -4.04774           4.808
LJ           4.14025         3.39232         -5.7113
LJ           5.57852        -5.65014        -2.94136
LJ         -0.138875        -4.98232        -2.60489
LJ          -4.43826         4.69355        -2.11032
LJ           2.96588       -0.126702        -2.24947
LJ          -3.20823         5.14355         5.45288
LJ           1.45818       -0.174253        -3.21801
LJ           6.43116        -5.05634         4.90862
LJ           5.29729        -4.10234        -4.56951
LJ          -4.37431         2.57281         5.65802
LJ           1.20321         4.64403         4.20535
LJ            -6.104        -2.37754      -0.0974058
LJ           1.97505         1.25532       -0.131305
LJ           1.87124          6.3425          4.6123
LJ           3.37185         5.47689        -2.26669
LJ           4.69453        0.249333         3.65638
LJ           4.80226       -0.252131         1.53279
LJ           3.99775        -4.17745        -1.86104
LJ          0.304551        -2.34313         1.73643
LJ          -2.58838         3.35401        -2.19615
LJ          -2.56653        -4.84324         1.23484
LJ          -5.16942          3.9725        -5.72309
LJ           4.79572         2.75122        -1.44243
LJ           0.45411        0.170313         2.13901
LJ           4.41335        0.971474       -0.894962
LJ          -4.23208       -0.567046        -4.60076
LJ          0.637084        -2.20843        -1.07819
LJ           5.32943         2.91289        -2.93519
LJ          -4.40226         1.94634        -1.55937
LJ         -0.280607        -2.96368         4.75398
LJ          -1.75201        -5.85234         4.20094
LJ           1.23051        -6.42256        -3.33675
LJ            -2.591        -4.38197       -0.733989
LJ          -2.15614        -2.52924        -0.60214
LJ           2.49861         4.47269         4.23376
LJ           4.24862        -1.53408        -1.26139
LJ           1.33974        -2.38095         1.02916
LJ          -1.79954        -2.53558        -1.11209
LJ          -4.04195        -4.21337        -4.94621
LJ           1.88939         3.97685         6.09245
LJ         -0.388214         3.89648        -1.92276
LJ           3.39781        -5.33814         3.70221
LJ          -1.65971         6.41586         3.28358
LJ          -3.18298        0.834051         5.09615
LJ          -3.01259        -2.20435         5.16648
LJ          -2.93185        -3.92325        -3.69823
LJ          0.340565          3.9257        -4.78431
LJ           3.56363        0.238863         6.18265
LJ           3.77366        -1.90373        -2.73858
LJ           1.67954         1.98995        -3.49649
LJ           3.28562         5.51573         3.90449
LJ          -3.39479        -2.57197        -3.27098
LJ           1.88829         6.37667        -2.03932
LJ           2.18239         5.77917        -3.52822
LJ           -4.9834         5.03924         5.94117
LJ          -5.07745        -4.56441         1.18746
LJ            5.6176         4.62303        0.922018
LJ          0.112723        -1.95119         0.73468
LJ          -1.50627        -4.66321         1.17951
LJ           3.96784         3.42055       -0.839183
LJ          -6.32228         3.93663         3.13637
LJ          -3.27182         4.17577        -5.26347
LJ          -2.51363       -0.962651        -5.07793
LJ           3.44597      -0.0892888        -4.14976
LJ           -5.2716         2.83011         2.15546
LJ          -4.06858         2.18683        -2.53413
LJ            4.0475         5.98233         -6.3346
LJ           1.20699        -1.27015        -6.07396
LJ           1.39136        -3.26044       -0.981028
LJ           1.66817        -5.38225        -5.69363
LJ          -4.45631         3.87159         3.36608
LJ           2.37891        -4.88561        -4.09174
LJ           1.39246         -1.5236       -0.427528
LJ          -4.24432         4.74631         2.11721
LJ           5.54135         2.69759         6.24925
LJ          -2.67561        -4.64129         2.62393
LJ           1.05634        -3.64362          1.1445
LJ           3.93068         0.31665        -3.94953
LJ           4.19899        0.467888         2.61088
LJ           6.32026        -3.81146        -5.16686
LJ           4.06162        -3.74529        -3.22553
LJ         -0.647465        -2.20994       -0.172757
LJ          -2.04976         2.28573        0.536385
LJ         -0.400737        -1.46381       -0.541026
