108
#Comment!
LJ          0.875302         5.35335         3.34884
LJ         -0.153566          1.8165         5.64665
LJ          -4.65253        -1.32108         2.60731
LJ           1.67992        -0.12734         1.04057
LJ          -4.27688         5.47709          1.5201
LJ         0.0996281       0.0222578         6.32051
LJ          -5.27563         -5.8508         5.94276
LJ         -0.133261        -2.16982        -4.58254
LJ           2.12736        -4.15286        0.638416
LJ          -3.90938         2.24697         -6.1125
LJ         -0.723339        -4.48521         4.94217
LJ           5.03373       -0.632009        -2.31045
LJ           2.89178       -0.172864         4.47465
LJ           4.14067        -2.11068        -2.10923
LJ           3.87179        -5.25555         4.79374
LJ           3.92528       -0.239416         2.63258
LJ            2.1724        -1.70343         6.10844
LJ           5.37576        -4.96691        -1.31908
LJ          -6.34023         5.98878         5.01671
LJ          -3.67802         1.44081        -5.09462
LJ           2.13438          6.3549         3.79133
LJ            5.2462        -3.29086        -3.74109
LJ          -4.68975        -2.20808        -1.42781
LJ           5.77574         2.38985        -0.32368
LJ           1.92384        -3.13791         1.43936
LJ          -4.00835          5.3486         3.46635
LJ          -6.06786        -2.05446         4.16206
LJ            2.0017         1.08592         6.42827
LJ          -3.49364        -2.87294         3.73858
LJ          -4.69247        -1.24314       -0.763893
LJ          -2.85816         4.43445         4.29563
LJ           4.71872         -1.5161         4.32676
LJ           -5.4383        -5.95118         -4.0512
LJ          -6.23975        0.470476        -5.02634
LJ           1.93006         3.54098         -1.5593
LJ           4.63607         4.41426         6.21742
LJ          -0.47762        -2.28772         -5.9588
LJ           2.49641         5.60058        0.714359
LJ           6.20002        0.210815        -5.29842
LJ          0.149205         2.85444        0.926828
LJ          -5.32662         3.60429        -1.31644
LJ          -1.07764         3.49116        -2.93972
LJ          -2.47173        -1.22545       -0.398763
LJ         -0.238786      -0.0184757        -3.37923
LJ          0.134617        -6.35398        -4.92839
LJ           4.19084        -1.07712        -1.09109
LJ          -6.15998        -1.95555         -3.1063
LJ          -5.61545       -0.205449         4.29519
LJ           5.62204         4.84364      -0.0919075
LJ           1.06311         1.02883         3.07989
LJ           -4.2886          5.2416        -1.84354
LJ          -2.28754        -1.48367        -3.28855
LJ           1.49277         3.21773        -2.87695
LJ          -5.43526       -0.524545        -3.57539
LJ           -1.4144         4.88717         6.38291
LJ          -4.82588         6.23849        -3.05536
LJ           5.87619         1.06413         5.54524
LJ           -1.1815         3.49978         2.10288
LJ           1.09729        -5.97504         1.66914
LJ           3.06968      -0.0173259         6.36971
LJ          -1.00059        -4.05258        -1.63623
LJ          -5.53227         2.12989         -4.3368
LJ          -2.82473        -4.76834        -3.42099
LJ          0.769216       -0.375815         3.40386
LJ           6.09379        -0.34279        -4.70448
LJ            1.0139        -1.34102        -2.65519
LJ           2.22723         4.39667         2.39387
LJ           5.52474         3.93987         2.46229
LJ          -5.93726        -0.75711        -4.66627
LJ           1.21745         5.67921         2.40576
LJ           5.49175         4.71008        0.697388
LJ          0.365653        0.330274        -5.94564
LJ          -5.88779        -5.20657         2.08992
LJ           5.72425        -1.99163        0.458567
LJ           -3.9935        -5.70945        -1.93901
LJ           2.09501         4.97455          1.9595
LJ           1.02413        -2.87177        -4.23509
LJ           3.22773       -0.957555        -4.40178
LJ          -3.13797        -2.59173        -3.92437
LJ           3.84657       -0.995856         4.13244
LJ          -3.24519         5.14996        -6.45935
LJ          -5.86598        0.111065        -5.23892
LJ           1.43133        -1.32359         4.93407
LJ           5.11326        -5.89461         3.39536
LJ          -2.30362        -1.35787         5.61245
LJ           5.69988         5.29006        -3.34371
LJ           1.11573        -3.18096        -4.22509
LJ          -1.34269         1.69997         2.33347
LJ           3.83989        0.374013        -5.05537
LJ          -3.92004         2.06506         6.04147
LJ          -3.28209         1.72608         6.27333
LJ          -6.26084        0.758871        -5.98278
LJ          -1.67337        -2.49288         5.22964
LJ           3.01102        -2.62402        -3.95151
LJ          0.657876         4.61621         6.08435
LJ          -3.45755       -0.708613        -1.46553
LJ           1.87753        -6.09673         2.51601
LJ           3.16714         2.36642        -4.08902
LJ           5.47353        -2.67263        -5.44708
LJ            1.1986        -3.64624         3.07144
LJ          0.565635         1.25958        -0.78516
LJ           4.88124       0.0397397        -5.28918
LJ          -0.61939        -5.16888        -1.33643
LJ          -3.87034         3.84604         5.17242
LJ          -4.53399         5.73176        -5.64907
LJ          0.305944        -4.73882         5.84959
LJ          -1.45961        -4.82397       -0.242805
LJ          -2.33814         4.14227         3.52914
