108
#Comment!
LJ         -0.702284         4.31962        -1.98029
LJ           3.05622         4.01141       -0.566138
LJ         -0.506207        0.715324         5.85436
LJ            3.2202        -2.45446       -0.185798
LJ          0.912111         4.57555        -4.20961
LJ           3.24815       -0.885653         4.45016
LJ          -1.81303        -6.09375         -4.5274
LJ          0.359367         1.94169         3.91643
LJ          -5.41838         1.40323         6.33933
LJ           3.06051        -2.58262         -3.8527
LJ           3.03586          5.4473         1.43646
LJ          -4.99846        -1.01403         3.08162
LJ          0.900369         6.33178         2.68845
LJ          -5.84304         -1.3473        -0.52264
LJ          -2.60846        -3.94818        -1.88639
LJ           1.49447          2.3929         4.65707
LJ           5.67771        -5.85346        0.134616
LJ           5.28712       -0.348965         3.16829
LJ          -4.37847         5.08744        -4.09248
LJ          -2.68802        -5.31186        -2.78777
LJ           2.95832         6.07346        -1.79953
LJ            1.3328        -3.63518        -4.31681
LJ         -0.749742        -3.79771        -1.27339
LJ           2.47325        -4.33767         4.03859
LJ           4.88838        -6.39738        -4.27934
LJ         -0.685803        -3.44209         2.07215
LJ            -4.767       -0.949917        -3.52498
LJ            4.6506        -3.26938        -3.10632
LJ         -0.262024         2.26233         4.40903
LJ          -3.43304         -2.6969        0.893032
LJ           1.68472       -0.817328        -4.44861
LJ          -4.73498        -2.18302        -3.30997
LJ          -3.59627         1.57776        -2.23988
LJ          -5.18423         3.36279        0.357619
LJ          -0.61018        -3.78382          3.7424
LJ          -4.15661         5.86985         5.35785
LJ           4.84317        -0.73618        -3.59883
LJ           -5.4334         6.04552         5.58629
LJ           3.37212        -1.78361         4.96197
LJ           0.15091        -5.22525         1.23665
LJ           -3.8189        -2.74296         3.35552
LJ          -4.64139        -2.75077        -3.66002
LJ           -3.6116         6.45409       -0.614116
LJ          -5.54275         1.96757         4.53324
LJ           2.35041        -4.60922        -6.25868
LJ          -5.54868         0.92383       -0.311257
LJ          -4.16237        -1.82069         -2.2804
LJ           1.19598        -5.34284        -1.32865
LJ          -5.45615        0.243938        -2.00554
LJ           2.57262         3.52261        -5.13557
LJ           5.51995       -0.798544        -0.56857
LJ          0.965509         2.92866        0.789235
LJ           3.09494        0.147723       -0.774023
LJ           4.00106        -5.52565         2.91806
LJ           5.54527        -2.03441       -0.203299
LJ           5.53339        -2.92317        -4.39132
LJ           1.17339         2.40145       0.0248507
LJ        -0.0351963         5.92092         1.08721
LJ           1.03549        -4.22227         3.83219
LJ           1.99407         4.22402          5.2307
LJ          -1.53523         3.07912        -3.98117
LJ          -6.41726        0.107287         3.47104
LJ          -5.87967        -4.19301        -4.19933
LJ          -1.11888       -0.762463        -1.24675
LJ          -5.77856        -4.77046        -5.13216
LJ           3.70162         -2.3624         6.46046
LJ           3.84209         1.60525         1.42352
LJ           2.69864         3.70936         4.90242
LJ           3.07616        -5.61716        -3.81733
LJ          0.261887         4.93924         4.50436
LJ           -1.0639        -5.26905         2.70891
LJ         -0.737737         5.61606        -6.10276
LJ           5.72047        0.859022        -0.34418
LJ          -1.98758         -5.0385        0.323386
LJ          0.661575         1.31729       -0.613221
LJ          -5.32063         4.72602         4.76781
LJ          -1.57964        0.422255        0.143963
LJ           3.74092        0.586831         2.86667
LJ           1.40077         3.63398         6.25793
LJ           6.39733        0.155761         3.68238
LJ          -5.10598         5.00102         3.26789
LJ          -5.53259         4.78848       -0.967673
LJ          -5.72268        -2.22454         5.83181
LJ          0.754403        -5.35254           6.211
LJ           6.08543         4.08492       -0.752296
LJ           -4.9304        -5.51006        -1.56155
LJ           3.89202          2.2039        -3.46474
LJ           1.05953        -4.88785         4.04236
LJ          0.753601         3.43058        0.996623
LJ          -5.60562         3.35851         -5.2666
LJ          -5.67354        -5.83123        -2.25741
LJ           3.15635        -5.47412        -4.86697
LJ         0.0825385         1.78488       -0.734333
LJ           -6.0943        -5.96677         1.02387
LJ           -1.1733        -4.93332         3.34669
LJ          -3.69799         2.34934         1.23406
LJ            -4.131        -5.99001        -2.27329
LJ          -2.65688        0.646141        -2.21531
LJ           3.93275       -0.652828       -0.455617
LJ           5.07082       -0.522446        -6.19978
LJ           4.09657        -4.43145         5.96874
LJ           1.05871         2.28727        -1.36654
LJ          -5.75206        0.930677         1.72272
LJ           1.55115         -4.1078        -0.97442
LJ         0.0421625        -3.25779         1.70617
LJ          -5.72721         -3.6027        -5.06212
LJ           5.32027         4.20819         6.31639
LJ           4.61941         4.57659        0.771234
