108
#Comment!
LJ          -3.10675       -0.297927         6.36416
LJ          -1.02474        -6.17505         6.37987
LJ          0.661554        -4.76322        0.876219
LJ           3.31295        -3.31806        -1.05706
LJ          -2.65301        -2.35137        -2.14141
LJ          0.120239        -1.19756        -3.46799
LJ          0.681828         -3.3746        0.640823
LJ          -1.96437         3.73208         5.73826
LJ            4.2978        -5.58325        -6.38125
LJ          0.970385         1.03332        -3.63874
LJ           6.21473         -3.8806         2.75274
LJ            2.9163        -1.52022         4.74546
LJ          0.710558        -5.11484         2.86108
LJ          -2.71152        -2.22027        -4.36344
LJ           5.55067         1.99242       -0.999766
LJ         -0.357757         3.15416       -0.696142
LJ         -0.457978        -3.16406        -5.38765
LJ           2.02581         3.62177         4.08239
LJ           2.33159         4.58473       -0.101625
LJ          0.884305        -2.19503        -4.65981
LJ          -3.43054        -3.07907         3.06024
LJ           4.67765         3.09023        -4.27887
LJ          -6.02226       -0.705436        -1.19412
LJ          0.802789       -0.161035          4.9772
LJ           2.47554         1.48823       -0.036855
LJ           1.23228        -4.43215        -1.17853
LJ           2.49468         -1.1784       -0.726151
LJ          -6.31746        -1.53638        0.396765
LJ           2.11693          3.0843        0.866438
LJ           2.99237         3.65235         1.53017
LJ           1.84528       -0.787951        -1.11515
LJ          -1.42233        -3.29493         2.88775
LJ          -5.64679        -4.66328        -2.66465
LJ           5.76168        -3.00282        -3.82286
LJ           6.05449        -4.12541        -3.10282
LJ          -5.87387         4.56332        0.398268
LJ          -4.42538        -1.91617         0.98109
LJ         -0.912454         -3.6643        -1.89976
LJ          -0.40759         4.82202         6.18244
LJ          -3.72147         2.66626         -3.9943
LJ          -2.64899        -5.30275            6.09
LJ          -6.13448         4.46312         2.66111
LJ          -3.04555         2.75663         5.48605
LJ           3.46146          1.4644         4.37495
LJ          -6.20743        -6.40986        -5.49883
LJ          -1.50374        -2.01025         3.54304
LJ          -2.08091         4.26249         2.63942
LJ          0.539001        -3.34923         1.27933
LJ         -0.947903          2.8822         5.23539
LJ          0.637139          2.7054        -3.31168
LJ          -5.21236         2.15003         4.92766
LJ           3.86429      -0.0186543        -2.43284
LJ         -0.501572         5.81196         5.22443
LJ            1.9744         4.61034         1.35701
LJ          -4.21355        -6.16942          4.3569
LJ         -0.625732          1.2844        -4.16893
LJ          -2.23658         3.87507        -1.71394
LJ           4.81241       -0.247997        0.629759
LJ          -4.88397         3.55947         2.45198
LJ          -2.28149        -2.97984         4.18625
LJ            4.4279         -6.0053         5.71513
LJ          0.813198         3.23969        -5.60164
LJ          -6.14139        -2.42969         3.42272
LJ          -5.10098         2.87711         -3.3344
LJ           3.86316         5.00255          1.0043
LJ            5.5462        -3.99416        -2.77502
LJ          0.179867        -5.61718         2.87949
LJ          0.333537         4.26027         4.12643
LJ          -2.43422        -3.39003        -0.14316
LJ          -4.17932        0.041419        -4.66919
LJ           5.93382         4.67671        -4.53582
LJ          -2.87209         5.00427         -6.0645
LJ          0.751162       -0.872225        -5.67133
LJ           2.33764         3.33537        -4.18691
LJ           2.81367          4.7012          4.9235
LJ          -6.21775       -0.889854         3.89212
LJ           3.32232        -1.98733       -0.695633
LJ          0.765085        -3.54231        -6.07756
LJ         -0.307284        -5.93972         1.37762
LJ           1.75419         4.10828          4.0311
LJ          -2.78795         -1.8707         5.31922
LJ            -1.297         5.43491        -2.21806
LJ           2.59059       -0.230096        -5.93023
LJ          -3.80271         4.22185        0.756776
LJ           2.65471         4.61327         -1.6693
LJ           2.05866        -1.52471        -4.04346
LJ          -5.35989       -0.314153        -6.03792
LJ          -2.23452         6.32337         5.79831
LJ          -6.15179       -0.557302        0.110569
LJ          -3.77829        0.799433         4.22344
LJ          0.214335         3.70724       -0.257583
LJ           2.71717         4.96455        -1.12272
LJ          -6.14591        -4.39362         1.12118
LJ           6.36815          5.3435         3.02569
LJ         0.0892483        -4.66965        -5.70907
LJ          -3.22862         3.11328        -5.41223
LJ           1.63475           4.636       -0.752513
LJ          0.839154         2.35432         4.64462
LJ           -6.0398        -5.29677          3.0859
LJ          -5.18592        -4.42429         3.66541
LJ           1.66855         2.23573        -2.00632
LJ          0.516593        -3.92351          3.2394
LJ          0.803078         4.28171         6.42658
LJ          -3.64458         4.16128         2.30296
LJ           4.93517        -4.60301        -2.60083
LJ          -4.64258        -1.22246        -2.61781
LJ           4.22436       -0.197221         1.02406
LJ          0.340459         5.61954         3.06559
