108
#Comment!
LJ           -1.1709         3.95795        -3.38557
LJ          -1.14654         2.05826          1.3136
LJ           4.26087        -5.88989         6.23648
LJ           2.43757        -5.52309        -5.87407
LJ          -2.20226         5.85555        -5.43012
LJ           3.89048       -0.754678         1.38024
LJ          -1.91736       -0.836431       0.0745982
LJ         -0.817016        -1.99794        -4.95819
LJ           4.71694         0.21806         2.98628
LJ           1.35106        -2.20464        -6.18061
LJ        -0.0156626        -3.67876        -1.88846
LJ           3.37799         6.43252        -6.29577
LJ          -4.94078         3.33076        0.234448
LJ          -1.52039         1.47824          5.9576
LJ          -6.37613         2.67365         4.98049
LJ        -0.0120409         1.96031       -0.342081
LJ          -4.11474        -6.13691         1.99307
LJ         -0.872979         5.82902         -4.5994
LJ           2.02691        -5.47423         4.63779
LJ          -3.50726         3.09266         4.34937
LJ           5.15734        -3.98904         3.03865
LJ           3.77071         3.94435         6.27423
LJ          0.765441         3.31952        -2.67549
LJ           1.63124         1.89375         -3.6153
LJ          -3.39659         1.62699         5.72843
LJ          -2.76414        -3.27716         1.10489
LJ            3.0433         3.87061        -4.70652
LJ        -0.0419638         1.44185        -4.20818
LJ          -1.24615        -2.78118        -5.63262
LJ           3.56587       -0.960296        0.234082
LJ           4.68774         1.68981         4.86793
LJ          -4.10431         -1.8466         3.69787
LJ          -3.01909         1.90393           3.894
LJ         -0.332111         3.56008         5.74954
LJ           2.28405         -0.1853         4.64957
LJ           1.59864        -3.33044         2.26909
LJ           3.19953         6.38551        -5.69762
LJ           4.66732     -0.00526899         2.58026
LJ           1.53418       -0.722952        -1.85386
LJ          -2.00091         4.58572        -3.34068
LJ           4.24528        -0.56273         5.59396
LJ          -1.05199          4.3706        -2.49488
LJ           4.50778        -5.36681        -1.92055
LJ          -3.03104       0.0525352        -5.60919
LJ         -0.540351         1.71428        -3.68462
LJ            1.4614        -3.11844         2.86385
LJ          0.931457         3.06092        -1.54632
LJ           3.62952        -5.48811        0.362248
LJ          -6.40403         3.95695          5.0577
LJ           -5.7141         1.37121         -4.0442
LJ          -1.74039         6.18489        -5.18928
LJ           5.11781        -4.91148         -2.7734
LJ           5.72981       -0.230119        -4.23194
LJ          -4.14573         2.66771        -3.09066
LJ          -3.95882        -1.69238       0.0141524
LJ          -2.65723        -3.62985         0.23152
LJ          -5.74774        -4.10183        -2.02531
LJ           6.34586         5.23509        -1.60849
LJ           2.48623        -2.98633        -4.52529
LJ           4.11658        -1.72299        0.300589
LJ         -0.482513          1.6662        -5.67294
LJ           -2.3556         3.88983        -2.84803
LJ         -0.842152        -1.23242         3.35292
LJ           6.42957        -5.84507         5.12141
LJ           5.07788        0.207234        -2.69664
LJ           2.14981       -0.727802       -0.238349
LJ          -4.51621         1.17123        -5.20988
LJ          -2.22381        -6.13659        -3.56982
LJ          -5.12188          2.0624         1.99532
LJ         -0.464655        0.796891         6.29006
LJ           3.43514         3.84953         1.67598
LJ           2.38725         6.06585         5.91087
LJ           3.34598         4.63841         3.67827
LJ         -0.233525         3.27877        -1.05773
LJ         -0.214084       0.0896841        -3.97559
LJ           4.61813        -3.78245         4.94473
LJ          -3.79336         -3.3434       -0.290179
LJ           2.13715         3.61546         5.67752
LJ           4.97069          2.1111        -6.34038
LJ          -5.83867         2.01879        -2.73371
LJ           -5.2825         4.20728        -3.48517
LJ          -5.35273         -3.3837        -2.28483
LJ          -5.48579         4.37353         3.35687
LJ          -4.49782        0.202882         -5.9462
LJ             2.472         4.47564         -4.8632
LJ          -2.00345        -1.70683        -1.41573
LJ          -4.30822         3.77572        -1.25303
LJ          -4.52715         5.70298         4.10671
LJ          -3.82151        -4.79325         0.31352
LJ           2.58545        -4.52948       -0.145018
LJ          -2.44738         5.65367         0.54518
LJ          -1.05456        -2.36239        0.885499
LJ           2.90558         1.88323        -3.91248
LJ          -2.45771        -3.25643         3.14222
LJ           5.66752         1.29237        -1.23046
LJ          -3.57127        -6.38859        -2.91884
LJ          -6.24825          4.8271        -2.17952
LJ           3.02721        -2.25378         3.43819
LJ          0.530894        -4.12108       -0.611231
LJ          -2.16631        0.236593        -3.18577
LJ           2.01695         4.39658        -1.16454
LJ            6.0059         2.48292         -6.1129
LJ          0.278617         5.90531        -4.85666
LJ          -1.79695         5.55693         3.94403
LJ           2.14436         2.79838        0.540023
LJ          0.481925         3.52018        0.125858
LJ          -5.31068         -4.2496        -3.05929
LJ          -3.48784         4.16713         1.56665
