108
#Comment!
LJ          0.848056         1.46227        -4.23687
LJ          -6.11432        0.441452        -5.23261
LJ           6.30338       -0.246449       0.0192157
LJ            3.6129         5.30941        -5.13033
LJ           4.23402        0.389539        -1.13276
LJ          -6.46009         2.42032         1.17581
LJ         -0.716813        -1.69433         1.07274
LJ           1.70806       -0.465265        -3.81932
LJ          -3.70789        -6.21341         5.30797
LJ          -1.75749        -4.29013        -5.03995
LJ           1.60279         3.72166        -5.57881
LJ          -5.43763         5.96654        -1.46751
LJ           3.99302        -1.62392      -0.0492483
LJ          0.327013        -6.38484        -5.38673
LJ         -0.230911         5.04473         -3.2138
LJ          -4.64919         1.70101         2.15699
LJ           5.36347         -1.3713        -4.57945
LJ         0.0120549        -1.70435         5.67788
LJ           -2.9524       -0.965608         -2.3726
LJ           4.52054        -1.13645         1.81016
LJ         -0.946396        -3.46068        -4.63551
LJ           2.12226        -4.45596         4.20709
LJ           4.63778         2.95283         2.97772
LJ          -2.75824         3.99702         3.46413
LJ          -5.77673        0.536923         3.44432
LJ          -6.01236        -1.79573         4.34462
LJ          -6.32969        -2.81034         4.45513
LJ          -3.51507         2.85946         4.76156
LJ           2.47422         2.10438          4.0676
LJ           1.82375        -6.00266        0.574332
LJ          0.540981         5.10377         -3.9651
LJ           2.84391        -4.62387         5.21166
LJ           5.29748         2.68499         5.76752
LJ         -0.480794         6.37619        -4.64621
LJ           5.94583       -0.943094         4.16465
LJ           3.32736       -0.933757         0.13396
LJ          -2.66945         6.40197         5.84713
LJ          0.167889       -0.780335         1.43134
LJ          -2.16807        0.339595         1.37019
LJ          -5.48203          1.7483        -0.78864
LJ           3.55452        -1.34177        -1.05322
LJ           6.30836        -2.76644         6.27212
LJ          -4.76579         2.85909       -0.504714
LJ          -1.57446        -2.73464         1.66828
LJ          0.861173        -2.34391          1.0363
LJ          -4.76148         1.98223         3.70025
LJ            4.8375       -0.557715        -2.52485
LJ          -2.91619        -2.65667        -2.73164
LJ            4.4972        -3.87146        -5.32554
LJ            4.7112        0.347689       -0.341857
LJ          -4.68173        0.215042         2.09089
LJ          0.704491         2.18643        -5.30428
LJ           5.32117        -1.25465         3.33297
LJ           5.03624         1.25662          0.1447
LJ         -0.886841         4.31084        -2.57763
LJ          -1.33284        -3.32241         6.11235
LJ          -3.20804        0.713285        -3.22774
LJ          -5.82342         1.91042        -3.84521
LJ          -4.60158        -5.75388         2.73232
LJ           4.99227        -0.71317        -0.30562
LJ          -4.61857        -4.29431         5.27437
LJ          -2.33339         5.47528          5.9254
LJ           4.84409        -1.31322        -3.65822
LJ          -4.72439         1.05949         1.27532
LJ           -4.4027         3.86459        0.158989
LJ           2.39181        -5.71314         5.34722
LJ          -3.98056     -0.00677856       -0.654104
LJ           2.65062         2.21043         2.56811
LJ           2.81334        -2.10589        -1.44093
LJ           3.46841         3.19964         2.52762
LJ          -1.61901        0.828595         2.72189
LJ            1.4347        -1.24405       0.0208593
LJ          -1.97679        -2.87614        -0.42591
LJ          -1.63669        -2.12327        0.203466
LJ           -5.4314         4.61201         4.58837
LJ           6.20042         4.04636         1.09186
LJ          -1.19436         6.19366        -3.60063
LJ          -1.54353        -2.52121         2.75273
LJ           2.30297         6.20343        -5.42209
LJ          -1.39773        -3.53434         2.37547
LJ          0.255711        0.119554         4.63253
LJ           3.79155        -2.94228        -1.95217
LJ           1.99951        -1.53476        -1.45986
LJ         -0.787837        -2.02774         2.09277
LJ           5.97694        -5.07536        -3.29339
LJ           -5.5101         1.31329         1.96104
LJ          0.712637        0.806878         2.38151
LJ         -0.577581       -0.554256        -2.77466
LJ           4.49927        -1.41178        -1.45013
LJ          0.126954        -5.09051         5.87981
LJ            3.4012        -5.09885         4.35305
LJ           6.28438        0.391875        -1.00239
LJ           2.35991         2.63213        -2.37634
LJ           3.07172         3.50039       -0.011372
LJ          -5.98591         4.05268        -1.18999
LJ           3.85923        -2.38745        -1.07489
LJ          -5.71578        0.826844        0.544397
LJ          -4.95655         4.26984        -1.50393
LJ         -0.992491        -2.45004       -0.600617
LJ          -4.63481         3.51564        -2.24908
LJ         -0.789739         1.01801         1.79941
LJ           1.90352        -2.18781       -0.160056
LJ           1.87627       -0.479638          5.5573
LJ         -0.395204         1.35071        0.631872
LJ           4.28194        0.635342         1.97952
LJ           4.14919         1.59834         1.45215
LJ           5.82073      -0.0999617        -2.76174
LJ            4.3051         1.68627         2.69244
