108
#Comment!
LJ          -1.03479         5.65861         2.14258
LJ          -0.69213        -6.18658      0.00232956
LJ          0.873225         4.77962        -5.72244
LJ          -1.11297        -3.79204         4.80374
LJ          0.348262        0.490683       -0.971902
LJ           0.92861         2.69862         4.80083
LJ          -5.95218       0.0325557         5.30612
LJ          -3.01326         1.83019        -1.04525
LJ           1.76441         -6.1869         -6.2106
LJ          -3.27831          5.9099         3.79436
LJ          0.271675         3.26118          4.6793
LJ          -2.46322        -2.00105         4.31102
LJ           5.10297        -5.65407        0.350879
LJ          -3.89681        -1.83218         5.55515
LJ          -2.39673         5.74651         0.23003
LJ          -1.03097         1.77457         3.90664
LJ           2.19685        -4.99396        -1.80062
LJ          -3.95778        -1.83341         2.28107
LJ           5.82929        -2.11529       -0.235985
LJ           4.42269         1.37298        0.902611
LJ          -1.42798         1.45266        -1.11628
LJ         0.0525425         3.57932      -0.0588799
LJ          -5.52181        -1.07086         6.46195
LJ           3.68067        -4.25496          -4.154
LJ          -5.13996       -0.781613        -4.79809
LJ            -5.247        -1.05369       -0.879333
LJ         -0.429989        -2.09949         1.32201
LJ           1.89319         5.15535        -1.49486
LJ          -3.10196        -2.44088      0.00987339
LJ           2.86171      -0.0728334       -0.106992
LJ          -1.42537        -4.15113        -2.03723
LJ           5.21389         4.09699         5.54399
LJ           3.94567        -5.80218        0.529909
LJ            -4.683         3.71874         3.76862
LJ          -5.17648         2.92793         -1.9872
LJ           1.95834         3.60354       -0.353841
LJ           5.62808        -2.72742        -4.84035
LJ          -4.21354         5.21987        -0.74488
LJ           4.78191         4.95249         4.76091
LJ           4.06149        -1.07443       0.0856964
LJ          0.279849        -2.89437       -0.531551
LJ           1.88793        -3.66153        -4.91594
LJ          -2.04272        -4.84351        0.533661
LJ           1.81421          1.1855         6.32966
LJ          -2.90892       -0.518134       -0.242096
LJ         -0.976355        -5.91693         5.98222
LJ          -4.54468        -4.18904        -2.95027
LJ          -4.19693         2.70003        0.339264
LJ          -5.96634        -3.15008         3.65893
LJ           5.25248        -1.65491        -5.61247
LJ           2.60138         5.31765         2.47876
LJ            5.6759        -2.07865        -4.92349
LJ           4.76715          3.0592           5.292
LJ          -6.34773       -0.887426         3.64378
LJ           5.33813         3.03588        -3.29957
LJ          0.277758         6.26865         4.75445
LJ           1.07755        -4.22073         4.29878
LJ           6.31824        0.167418        -2.11442
LJ          -6.35949          3.6869         1.46288
LJ          -1.13291       -0.725756        -4.89145
LJ           5.10111        -2.83025         6.42492
LJ            4.8985         5.99025        0.960241
LJ          -3.38152        -1.88958       -0.438113
LJ             1.006         1.10767        -2.17631
LJ           -4.5179         2.59488         5.34399
LJ           4.84867         1.64777       -0.513441
LJ          -1.07291         5.03345        -6.37803
LJ          0.666854         5.11173        -3.27104
LJ          -5.90799       -0.390072         4.54865
LJ          -2.52463         1.71022         2.59098
LJ          -2.46762        -4.23455         2.08716
LJ          0.469148         -3.1257        -1.84317
LJ           -5.0974          -5.749          4.4567
LJ        -0.0580413        -3.09735        -5.70568
LJ          -1.94471        -4.03035         5.93968
LJ            3.8981         3.56701         1.03562
LJ          -4.05704         1.22062        -1.34328
LJ           2.14508        -2.19687        -5.87714
LJ        -0.0424218        -6.39287          6.1317
LJ          -4.41878        0.833976        0.994557
LJ           2.82396         -4.1257        -5.73227
LJ           6.15288         3.34113         2.91787
LJ           4.28771       0.0719501        -1.32451
LJ           2.92172         3.86018        -4.48948
LJ           5.33385        0.291187         4.18222
LJ         -0.546142        -5.12334        -1.55294
LJ           2.41606         5.59811         5.46377
LJ          -5.75585        -4.54702         5.55272
LJ          -3.38876       0.0898597        -1.53641
LJ          -1.57519          4.7914        0.069197
LJ           -0.8674         6.45487        0.873483
LJ          -1.81339        -3.03629        -3.07581
LJ           -4.2225         4.60242         -4.3984
LJ          -6.07036           4.867         1.88885
LJ          -4.90636       -0.749136        -4.47668
LJ          -5.55728          6.1109        -1.57362
LJ          -5.35729         4.74173         5.91838
LJ          -1.17156         4.35192        -4.25727
LJ           -5.2672        -1.76188        -5.91816
LJ         -0.253211         2.61522         2.75733
LJ          -1.96971         1.23922        -5.39651
LJ          -0.73292         2.14514         0.46721
LJ           4.40704       -0.301031         5.02966
LJ           5.48798      -0.0501096        0.681432
LJ          -0.34163        -3.52952         4.26165
LJ          -3.62598      -0.0661273         5.37122
LJ           -4.7377        -2.77358        -6.11559
LJ          -4.01957        -3.01189         2.67941
