108
#Comment!
LJ           1.06376        0.857954        -3.15202
LJ          -3.20768       -0.623789         2.31229
LJ           5.60256        -1.51382         1.79202
LJ          -4.42148        0.830292        0.769542
LJ          -1.74417        -1.59888         2.05237
LJ          -2.04181        0.121877         2.91874
LJ          -1.25145         2.37839        -5.91277
LJ            3.8552        -4.67559       -0.643954
LJ          -2.53128          0.8867          1.5642
LJ           5.50887       -0.574047         5.71878
LJ         -0.302914        -5.32524       -0.622036
LJ           3.46677         2.50419        -1.26301
LJ           3.90672         4.24401        -5.61524
LJ          -3.61034          4.7702         1.46037
LJ           4.56813         2.14941        -2.64576
LJ           4.30558        -3.89208        -1.41816
LJ           4.61593        -3.54099          2.5499
LJ            1.8109        0.500476         2.49033
LJ          -4.65088        -6.40319        -3.39446
LJ          -5.26259        -3.53412        -3.70719
LJ           5.86377         6.16146          1.9586
LJ           6.37346        -4.82777         -3.8585
LJ         -0.374052         4.56216        -5.64689
LJ          -4.85203         5.39219        -5.29474
LJ          -1.97526        -5.59984          2.6072
LJ          -1.65336        -6.15429         0.27591
LJ           2.79418          1.2971         3.89605
LJ          -3.99702        -5.06742        -5.26345
LJ           4.52177         3.28681        -4.09034
LJ           1.47566         1.58651         2.81944
LJ          -2.23242        0.840717        0.325849
LJ           2.46793         2.42402       -0.172601
LJ           6.25157        -1.07445         3.09328
LJ          -5.35234        -6.12683         6.09679
LJ           2.91954         -4.8822         5.06479
LJ          -2.34101        -1.03161         1.06382
LJ           4.61895        -4.10639         -3.7796
LJ           -3.4102         2.84812         1.34809
LJ          -2.25564        -5.06153       -0.443139
LJ           6.09191         3.98039          5.2695
LJ           3.64521         6.19426       -0.905404
LJ          -1.79533       0.0416839        -3.24512
LJ           3.36335         4.36509        -2.49774
LJ          0.575607         1.23439         2.20835
LJ           1.35893         5.18019        -4.45018
LJ           -3.9333        -4.98611        -1.22799
LJ           1.19399         3.65844         3.22392
LJ           4.73529         0.36181         1.92428
LJ           2.88364        -6.12808        -5.75407
LJ          -1.60555        -6.45613        -5.24291
LJ           3.08761        -1.71333         5.13499
LJ           3.23872         -1.0348         3.87092
LJ           1.45937        -4.94454         5.12508
LJ           5.73368        -2.31687        -1.88301
LJ          -4.01631         4.35993        0.879422
LJ           6.26083        -6.37848         1.26834
LJ          -4.02748       -0.556271         3.99135
LJ           2.66268         1.41707        -3.01059
LJ         -0.331849         2.46454         4.17053
LJ           3.92907        -3.23493         4.46663
LJ          -3.58854         -4.4002        -6.40426
LJ          -3.33968         4.39562        -1.80645
LJ           3.38744         2.47913        0.197203
LJ         -0.827089         0.45273        0.825603
LJ           1.04413        -4.55922        -5.52553
LJ           3.25453         2.60906        -4.14767
LJ          -4.14057         6.39677         5.90469
LJ          -5.19918         4.12523         4.77377
LJ           1.34656         3.77349         6.05305
LJ          0.341274        -2.18397         4.31773
LJ          -2.61603        -5.58591         1.49265
LJ          -6.35407        -2.41331        0.256754
LJ           4.72864        -3.97868         4.23627
LJ           6.37594       -0.863449         2.65578
LJ          -1.71912         1.87814       -0.436007
LJ          0.506341         2.33137         1.59819
LJ          -3.91991        -3.84419        -5.62522
LJ          -4.09725         4.20015       -0.952355
LJ           -5.5972       -0.104997        -2.88218
LJ          -3.53358        0.684494         1.07053
LJ           3.53737        -3.44376        -0.29375
LJ           2.95317        -2.02438        -4.37352
LJ         0.0961339        -5.01993        -1.05267
LJ           3.15829        -1.19865        -3.72154
LJ           3.54797         3.02799        -5.42856
LJ           6.27094         5.32815        -4.65721
LJ          -2.29698          1.1331       -0.525311
LJ           3.78412       -0.583889         2.49814
LJ           5.14128         -6.4406        -3.49437
LJ           3.63474         3.96981        -3.96037
LJ          -3.98769        -6.13633         4.11873
LJ          -5.53705         0.41688         5.19842
LJ          0.166681        -2.95415         5.51844
LJ          -5.83917        -2.90721         3.85546
LJ          0.946346       -0.217538        -6.40017
LJ           6.28867      -0.0426191         6.20864
LJ          -4.41633         -3.4324       -0.878735
LJ           2.25623        -5.94729         4.13204
LJ          -2.97515        -2.32778         -1.6652
LJ           5.09783        -2.46103        -3.24915
LJ           4.22462         3.08648         5.60148
LJ          -5.47267        -2.42271       -0.395512
LJ           4.29921         1.62337         5.35933
LJ         -0.347716        -3.15489           3.922
LJ           5.39073        0.639567        -1.18979
LJ          -2.38931         4.46274        -5.53487
LJ           5.96028        -2.47188         3.48385
LJ           1.65368        -2.67589        -4.51901
