108
#Comment!
LJ           3.39267         4.36252        -4.42878
LJ          -4.92355        0.520304        -4.23919
LJ           -4.9556       -0.911337        0.337039
LJ           2.04689         6.27682          4.6556
LJ         0.0679466        -1.40147         -3.7264
LJ           5.58948         5.44072         2.64705
LJ         -0.506174        -2.33357         1.19293
LJ          0.540247       -0.116487        -3.57179
LJ          -5.10397        -3.71541        -6.38245
LJ           0.73501         -3.6787        -4.75122
LJ           2.48317         5.08248        -5.55583
LJ           5.61318        -5.77486        -1.58403
LJ          -6.16905        -1.07645        -0.46732
LJ          0.168885         4.93486        -4.45367
LJ         -0.513992         2.79264        -1.66468
LJ          -4.47471         3.78265        0.762901
LJ            2.5733        -1.40146        -4.19463
LJ         0.0602441        -1.58357        -6.36318
LJ          -2.61205       -0.761972        -2.06867
LJ           2.85612       0.0107879      -0.0399849
LJ         -0.239815        -3.21646        -3.93456
LJ            1.9288        -2.73661         5.92861
LJ           4.03461         2.20386         2.51653
LJ          -4.98208          1.2511         3.47258
LJ           5.92825        0.233456         6.08867
LJ          -4.51513        -1.13455         6.06315
LJ           -5.7254       -0.778456         6.45545
LJ          -2.31157         3.63694         6.13186
LJ            5.0961         1.95827         4.99376
LJ           4.74108         4.11215         2.48639
LJ         -0.211435         4.28211        -3.49809
LJ           2.02276        -2.70858        -5.54192
LJ           5.28545        0.593899        -6.22582
LJ         -0.796995         4.23874        -5.23694
LJ           2.88757        -3.58567        -5.78385
LJ           3.67413       -0.107726        -1.22914
LJ          -2.26134         5.24214         4.07637
LJ          0.282993        -1.52682       0.0889498
LJ          -1.96874          3.1852         1.20375
LJ          -4.07779        0.109355        -0.72651
LJ           1.86998        -1.84854       -0.685968
LJ          -4.52677        -2.25323        -5.34064
LJ          -5.70304         5.54479         1.00787
LJ         -0.836243        -3.08869        0.387391
LJ         -0.318454        -2.36107        -0.18343
LJ          -5.12735         1.67005         2.26069
LJ           3.07454       -0.415822        -2.55665
LJ          -2.45615        -2.38765       -0.373281
LJ           6.08595        -2.89135        -4.28424
LJ          -6.35761      -0.0151159        -0.77587
LJ          -6.34502         1.48749         2.32735
LJ           2.99774         1.82043         4.53075
LJ           3.53839         2.19407         5.87709
LJ          -4.64594          2.4896       -0.288901
LJ          -1.29181         3.30676        -2.64509
LJ         -0.816671        -2.75949         5.58981
LJ          -1.54447       -0.938573        -4.64803
LJ           5.88193         1.32987        -3.34897
LJ          -3.65588        -4.36919         1.26031
LJ          -5.26984        -0.43556       -0.868713
LJ          -4.72795        -6.43278         5.21763
LJ          -1.97957         4.26493        -5.61149
LJ           3.69693        -4.33357        -1.52564
LJ           -4.4716         1.25712       -0.285292
LJ          -3.44906         2.92441        0.538517
LJ           0.80019         5.74718         2.82735
LJ          -3.25487        -3.59674        -1.14474
LJ           2.02654        0.981924         1.08266
LJ           2.85443        -2.11299       -0.350013
LJ           2.03991         4.20308         2.12676
LJ          -1.67479         1.09036         2.03594
LJ           1.54434         -3.2157        0.461261
LJ          -1.36708        -2.11005        0.365727
LJ           -1.4977        -1.31936         1.00399
LJ          -4.48341         3.09839         4.26718
LJ          -4.84362         6.25357        0.500025
LJ          -5.14435        -6.28605         6.27509
LJ          -1.75165        -2.87441         1.02402
LJ           1.44515        -5.32371         6.26596
LJ          0.677838        -3.49987         1.22132
LJ          0.430199         2.87809         3.95147
LJ           3.83976        -1.50442        -2.11413
LJ            1.7594          -2.686        -1.38535
LJ          0.106283        -3.00634         2.07112
LJ          -5.62377        -4.34463        -2.07713
LJ          -5.28411        0.783556         1.05191
LJ          0.819325        0.988436         1.13814
LJ          -1.11969       -0.755353        -1.59046
LJ           5.51167       -0.179485       -0.525855
LJ         -0.192543        -2.68537         4.42057
LJ           1.14773        -2.59886         3.46848
LJ            5.5938       -0.235421        -2.61325
LJ           1.32465         1.01179        -1.63315
LJ            3.2098         2.81394        -1.04242
LJ           5.28572         3.50932      -0.0879193
LJ           3.31896       -0.931148        0.500857
LJ            -5.412        0.212259        -0.11877
LJ          -3.62279         2.51965       -0.852452
LJ          -0.28616        -2.40199        -3.31745
LJ          -4.22464         3.31987        -1.56369
LJ           -1.2386        0.129035         2.53981
LJ            2.3607         -4.5339       -0.289426
LJ           0.95768        -1.04366         4.12764
LJ         -0.195646        0.886282         1.82417
LJ           3.99009        0.320145         1.70077
LJ           3.38844         1.39006          1.8124
LJ           3.92875         1.07517        -2.62194
LJ           4.18461         1.03691         2.71869
