108
#Comment!
LJ          0.762154         1.31615        -4.13865
LJ          -6.14719        0.417312        -5.29174
LJ           6.27894       -0.261748       0.0474819
LJ            3.6824         5.25927        -5.02252
LJ           4.29895        0.533338        -1.21293
LJ          -6.45336         2.30126         1.14926
LJ         -0.757049        -1.66252         1.09367
LJ           1.75805       -0.486761        -3.82195
LJ          -3.75714        -6.25825         5.21793
LJ          -1.84214         -4.2708        -5.02317
LJ           1.55845         3.67629        -5.58765
LJ          -5.36193         5.91601        -1.46326
LJ           3.89631        -1.69502       -0.106685
LJ          0.265771        -6.29979        -5.44009
LJ         -0.337495         5.10739        -3.20101
LJ           -4.5708         1.62481          2.2296
LJ           5.49024        -1.37523        -4.61038
LJ         0.0217936        -1.69793         5.64717
LJ          -2.93921       -0.969521        -2.41744
LJ           4.59025        -1.17003         1.87095
LJ          -0.98897        -3.51124        -4.69205
LJ           2.12347        -4.53403         4.11081
LJ           4.63475         2.97029         2.98118
LJ           -2.6843         4.10446         3.42125
LJ          -5.76418        0.551179         3.41419
LJ          -5.95532        -1.87158         4.28858
LJ          -6.36413        -2.87703         4.34299
LJ          -3.56864         2.78394         4.75866
LJ           2.37176         2.10272         4.01885
LJ           1.70867        -5.81967        0.559323
LJ           0.59566         5.09121        -3.99243
LJ           2.89651        -4.72201         5.13035
LJ           5.29667         2.76786         5.72706
LJ         -0.387552         6.45351        -4.64877
LJ             5.943       -0.782427         4.03691
LJ           3.24718       -0.934525         0.15433
LJ          -2.61744        -6.41179         5.92861
LJ          0.126017       -0.778174         1.46221
LJ          -2.19948        0.227424          1.3832
LJ          -5.47505         1.83135       -0.740381
LJ           3.62162        -1.38865         -1.0073
LJ           6.23016         -2.7926         6.23749
LJ          -4.70972         2.75485       -0.574746
LJ          -1.63289        -2.69431         1.71823
LJ          0.844756        -2.30518         1.12716
LJ          -4.74465         1.97974         3.73937
LJ           4.95852       -0.587982        -2.53047
LJ          -2.94879        -2.65128        -2.82193
LJ            4.4339        -3.90857        -5.36628
LJ           4.71063        0.380104       -0.158226
LJ          -4.60665        0.106479         2.10585
LJ          0.607686         2.22763         -5.2608
LJ            5.3999        -1.39297         3.23252
LJ           4.89795         1.23848        0.203352
LJ         -0.818894         4.37326        -2.58374
LJ          -1.35621        -3.36326         6.12417
LJ          -3.27427        0.775137        -3.16624
LJ          -5.79106         1.95288        -3.84285
LJ          -4.63924        -5.80922         2.79162
LJ           4.88812       -0.711361       -0.255518
LJ          -4.59421        -4.21364          5.2894
LJ          -2.32768         5.45414         5.86404
LJ           4.85642        -1.16317        -3.69109
LJ          -4.76359         1.16486         1.19201
LJ          -4.47577         3.89516         0.12691
LJ           2.46451        -5.63132         5.44314
LJ          -4.01565        0.121931       -0.603642
LJ           2.70222         2.26674         2.63382
LJ           2.85416        -2.08902        -1.47284
LJ           3.53959         3.12868         2.54691
LJ          -1.60812        0.809133         2.71233
LJ           1.43887        -1.22523      0.00966571
LJ           -2.0102        -2.90835       -0.507666
LJ          -1.61102        -2.13158        0.174594
LJ          -5.46494         4.66842         4.59925
LJ           6.12733         3.92334         1.11269
LJ          -1.06833         6.17409        -3.44354
LJ          -1.48705        -2.53661         2.78028
LJ           2.39175         6.19195        -5.40686
LJ          -1.48155        -3.52904         2.43143
LJ          0.251517      0.00672733         4.65968
LJ           3.79276         -2.9929        -1.95075
LJ           1.96923        -1.43846        -1.42512
LJ         -0.770423        -1.97387         2.13089
LJ           5.92317        -5.10597        -3.34102
LJ          -5.54188         1.33327         1.99816
LJ          0.686473        0.806348         2.42123
LJ         -0.557903       -0.551213        -2.82161
LJ           4.46892        -1.46136        -1.53187
LJ          0.138081        -5.17987         5.94487
LJ            3.4673        -5.19155         4.41741
LJ           6.27931        0.387755        -1.04902
LJ           2.40133         2.69613        -2.40677
LJ           3.06395         3.45394        -0.02692
LJ          -6.00715          4.0545         -1.1988
LJ           3.86325        -2.42266        -1.09788
LJ          -5.74217        0.826393        0.597035
LJ           -4.8806         4.35768         -1.6082
LJ          -1.02175        -2.45587       -0.489502
LJ          -4.66346         3.53151        -2.22226
LJ         -0.730728         1.05483         1.78609
LJ           1.92814        -2.12212       -0.185704
LJ           1.90847       -0.456992         5.61383
LJ         -0.399944         1.36382        0.605462
LJ           4.28954        0.664593         1.99962
LJ           4.16634         1.60595          1.4247
LJ            5.8886       -0.150396        -2.75776
LJ           4.30629          1.6971         2.69138
