108
#Comment!
LJ          -2.58867         4.12539        -6.35062
LJ          -5.45835         3.18821         2.89209
LJ           4.07095        -5.22722         4.74269
LJ           1.56837        0.706572        0.427964
LJ            3.9301         3.79073        -2.72817
LJ          -6.34413        -5.93828        -6.33834
LJ           4.59494         5.18263        -2.48048
LJ           3.88755        -1.38092        -5.28645
LJ          -1.62606          1.0953       -0.321624
LJ          -3.30139        0.118595        -2.52307
LJ          -1.80511         -2.9725          5.2201
LJ           1.16488        -5.78563         3.78539
LJ           5.08708        -3.68637         2.50285
LJ           4.08349        0.812316       0.0512758
LJ          -3.05032        -4.19471        -3.00774
LJ           2.24095         0.65328        -3.98607
LJ          -2.59447         6.20207        0.138627
LJ          -5.04033        -4.76624         1.60647
LJ         -0.904065        -6.37996         4.99145
LJ          -6.27162        -4.29112        0.900962
LJ       0.000849724        -3.67658        -3.41448
LJ          -1.14157       -0.213932         -6.0154
LJ            4.5857        -2.10404        -1.36085
LJ          -1.79181         5.44566       -0.401973
LJ         -0.289617        -2.72984        -3.42102
LJ          0.162411         4.39821        -5.36274
LJ           4.87262        -4.67271         5.15969
LJ           -2.5729          5.7725        -5.61938
LJ          -5.61871        -4.92155        -5.60948
LJ           2.36206         1.11542        -5.20512
LJ          0.120424         2.38807         3.91772
LJ           1.35118        -1.52414        -4.58709
LJ           5.46159         4.98133         4.23407
LJ           4.64037       -0.573996         5.86428
LJ           3.15868         1.73997         1.53235
LJ           -1.8605        -2.63523        -4.16243
LJ          -2.99891         1.37956         5.01697
LJ          -6.01419        -6.14447        -5.02305
LJ          0.195936         5.64994       -0.431932
LJ          0.361733       -0.815863        -6.07247
LJ          0.379668         6.25921         2.30798
LJ          -4.38891        -5.39498        -4.78967
LJ           4.46835        -4.61694         1.73082
LJ          -2.93025        -1.71117         2.58887
LJ          -3.38533         4.91442        -1.11929
LJ          -2.95236        -1.49399        -1.16008
LJ          -5.68011        -5.19827        -6.04007
LJ          -4.36438        -1.44991       -0.367816
LJ            -3.507       0.0286382         5.87694
LJ           4.52588        -4.34196          1.4454
LJ           5.64284         1.28823          3.3915
LJ          -5.13877        -4.30395         3.83404
LJ          0.139198         3.62151        0.608174
LJ          0.171132         1.55484        0.365814
LJ          -4.97226        -1.50455        -5.27563
LJ          -3.50938       -0.615881         3.59979
LJ          -6.03058        -5.65947         1.59437
LJ           1.90965         4.00785        -2.49792
LJ           2.02722       -0.819434        -6.39362
LJ          -1.93117        0.405128        -1.42074
LJ          0.822046        -5.70265         4.32454
LJ          -4.31466       -0.577265        -4.70827
LJ          0.814988         3.40532         1.44571
LJ           -6.1125         2.65582        -2.06647
LJ           6.18773         2.98883         2.11081
LJ           4.47683         4.46167          0.4419
LJ          -4.75796         5.36855        -1.13282
LJ         -0.687829        -3.26115        -5.91895
LJ          -2.31188         2.34203         4.69901
LJ          -2.33067        -1.86968        -5.16264
LJ          -0.39839        -3.68745          6.1717
LJ          -4.98962         2.46715        -3.54791
LJ           3.35334         1.39855        -4.91978
LJ           3.54091        -2.60944        -4.43188
LJ           4.11798        -6.18685         2.09629
LJ          0.507674        -3.78803        -4.74685
LJ          -4.03025        -6.37967         3.30175
LJ           1.89089         -1.2874         3.10168
LJ          -2.52995         3.58344         -4.6263
LJ          -2.71378        -2.45542        -4.85054
LJ           2.79089         6.24051        -3.36573
LJ           6.06353         2.31119      -0.0570236
LJ            4.3011         1.08756         4.43873
LJ           2.43765         2.60947        0.187138
LJ          -2.28928        -3.71644         -1.2984
LJ         -0.950241         1.40642        -2.24313
LJ           5.75974          5.5973        -5.82308
LJ          -3.52332        -1.83388        -3.97928
LJ          -4.87061        -2.00373         6.42133
LJ          -1.16563        -2.86984        0.775759
LJ          -3.92503         1.13429        -4.77833
LJ         -0.779292         5.73699         3.12681
LJ          -4.61634        -6.06296        -2.85818
LJ            -5.116         2.52763       -0.888053
LJ          0.307763        -6.30245        -1.11451
LJ           2.27097        -3.19254        -0.71667
LJ           1.98815         3.88913        -2.57999
LJ          -4.33395         2.01842        0.453475
LJ           6.01803         -1.1178        -1.25333
LJ           5.43373         -5.7946        -1.75825
LJ          -4.86049         5.52738         2.48421
LJ          0.488543        -4.47479        -4.57352
LJ           5.98035         2.84938       -0.850545
LJ          -6.30506        -2.64323        -6.05916
LJ          -5.06445          5.8636        -4.99304
LJ          -6.17836        -3.50744        0.584567
LJ          -4.16987         1.10935        -4.67928
LJ           -4.8912        -1.90458         2.61583
