108
#Comment!
LJ          -6.35626        -5.21109        -4.46384
LJ           5.07166        -5.82038        -4.99452
LJ          -3.01774        -2.68188         5.87413
LJ          -4.07899       -0.783202        -5.28614
LJ         -0.580749        -2.95743         4.72297
LJ          -3.95188         -6.2208        -1.58666
LJ           -1.7078        -3.44613         5.32459
LJ           1.10329         1.43335        -2.04363
LJ            6.2552        -2.99896         4.23435
LJ          -2.29821          5.9847         5.47025
LJ           -1.6343        -5.38237       -0.831734
LJ           4.06572        -1.58173        -3.19797
LJ          -4.95142         3.00607        -2.66825
LJ           1.27294         -2.8532        -3.80145
LJ       -0.00544334         5.80061         4.20303
LJ          -4.77146        -5.42794          5.0135
LJ          0.253083        -3.03838        0.655935
LJ          0.792884         2.97876          1.2381
LJ          -5.10075       -0.232244        0.550357
LJ           1.26472        -3.17812        -1.18306
LJ          -4.90621         -5.6586        -2.57024
LJ           3.49014         -2.7567        0.586818
LJ         -0.365965         -2.7676         5.74197
LJ           2.92116         5.04285        0.386965
LJ         -0.247509        -5.93331          5.5352
LJ           3.59555        -5.55402        -4.16289
LJ          -5.71088         5.80618         6.36943
LJ           3.66548         6.22334          6.3461
LJ           5.32614        -4.49747        -2.03701
LJ          -2.84988        -5.85635        -2.79638
LJ          -4.29943         1.44234         2.13702
LJ           1.06338       -0.909191        -5.84621
LJ          -3.35186        -3.39677        -1.24197
LJ           4.89417         -6.1143        -5.91709
LJ           2.65437        -2.48777         3.04134
LJ          -3.60489        -2.41779        -2.10716
LJ           2.82714       -0.847072         6.35606
LJ           2.28369         5.22345       0.0785483
LJ           -6.1707         4.89449        -6.27861
LJ         -0.518316         -2.7536         -3.9287
LJ           1.64359         5.63573         2.56914
LJ           -0.4174        -5.56509         3.09032
LJ           5.85023         5.97836       -0.266322
LJ          -2.90023        -4.35858          4.9067
LJ          0.213024        -3.97251         4.04386
LJ          -5.82501         -1.8492          -5.741
LJ           5.45864        0.904536        -1.55032
LJ          0.562018         3.79119         5.51496
LJ           6.36406         2.12969         2.40607
LJ           5.53156        -4.35818         5.55387
LJ          -6.02772        -5.59745          1.3733
LJ          -4.89598         2.77713        -1.83192
LJ           5.07405        0.304731        -4.76404
LJ          -5.53826        -2.81653        -1.58586
LJ          -2.24612        -3.90626         4.26985
LJ          -3.57347         4.91811        -3.82081
LJ           5.83947        0.468344       0.0831874
LJ           3.23803        -2.18378          2.9968
LJ          -1.54672         3.65505         5.16843
LJ           5.64319        -3.77809       -0.963731
LJ           1.28355        -0.64079         -2.9271
LJ          -1.12732       -0.558351        -4.40627
LJ           1.57943        -3.93509        -5.75166
LJ          -4.66296         2.50411        0.360286
LJ            4.8217       0.0442203         1.19656
LJ            2.3695        -3.42546          1.6984
LJ           1.59989        -3.36947        -2.72833
LJ          -6.09151        0.291158         2.48421
LJ          0.302133        -2.64838        -2.95635
LJ           4.99588         3.68034         2.60263
LJ          -1.78674         1.74943       -0.838425
LJ          -3.45148         6.21928         5.24423
LJ           4.51587       -0.726985         5.71414
LJ           3.61299        -6.21244         4.09859
LJ            -1.146         1.89569        -0.75921
LJ           4.72312        -3.24052        -1.60362
LJ           3.56909         2.42393         4.27206
LJ           2.17382        -3.92389         3.41334
LJ          -2.74579        -4.80435        -1.38721
LJ           5.10834        -1.08573        -1.58022
LJ           -1.9919        -5.29465         2.49728
LJ           3.32227         5.28134         4.35841
LJ          -3.87714         4.67092         3.55451
LJ          0.103462        -2.06491         -5.2093
LJ          -1.56372         -3.2435         1.97403
LJ           2.21114         3.19474        0.635232
LJ           1.16677        -4.32622        -2.29968
LJ           3.44305        -2.56422        -4.36997
LJ           4.44515        -5.80768        -1.62528
LJ          -5.21585        -1.56169         4.93155
LJ          -4.71557          2.0132         4.14716
LJ          -5.46289        -5.80186         -4.7457
LJ           2.01179         3.76462        -3.27353
LJ           4.44323        -6.13117        -5.11015
LJ          0.701301        -6.02132         2.25262
LJ           4.99737         1.26814         2.04952
LJ         -0.283146         1.19375          1.9362
LJ           1.77674        -0.66146        0.536548
LJ          0.246273         1.52234       -0.407481
LJ           5.12424        -6.34198        -1.86271
LJ           3.94515         4.95895        -3.62732
LJ           5.15278       -0.604459         -3.1282
LJ         -0.403665        -5.35444        -4.74151
LJ         0.0981689         6.16953         3.61659
LJ          -2.10885        -3.56595        -2.11724
LJ           2.24594          0.9276         2.83269
LJ           -5.7185        -4.15235         4.12489
LJ           3.54176         1.98914         4.58679
