108
#Comment!
LJ            5.3266         5.95286        -4.01817
LJ          -3.97182        0.246844        -3.84005
LJ          -3.72469        -1.56763       -0.713445
LJ           1.35249        -6.30548         2.02476
LJ         -0.528995        -1.83712        -3.64478
LJ           4.09643        -5.52248         4.45698
LJ          -1.14217        -2.50565        0.599493
LJ         -0.250236       -0.708251         -3.1453
LJ             -6.41        -1.89453        -5.72102
LJ           1.45466        -2.86506        -3.60793
LJ           2.95855         -6.3763        -5.95187
LJ           4.22651        -4.86641        -1.64744
LJ          -5.00715       -0.568148       -0.551843
LJ          -1.07015         3.40156        -4.05488
LJ          -1.63818          1.7167        -1.59299
LJ          -3.99878         6.17562       0.0105236
LJ          0.708335        -1.65645        -3.85605
LJ          0.574701        -1.25164        -5.58854
LJ          -1.75964       -0.612933        -2.05904
LJ           1.97754      -0.0809355       -0.929399
LJ          0.508572        -3.25788        -4.20204
LJ           1.70152        -1.52186         -5.5052
LJ            3.4858         2.03482          1.5334
LJ           5.96688       -0.106286         1.93167
LJ          -6.12801        -0.95562        -5.81889
LJ          -4.45445       -0.533675        -5.05457
LJ          -4.55908        0.507827        -5.70763
LJ          -1.54279         2.32421        -5.56643
LJ          -6.18619         1.51915         5.79433
LJ          -6.01145         3.29745         4.87747
LJ          -1.25777         3.07992        -2.89319
LJ           1.78141        -1.46431        -4.42624
LJ            3.7074      -0.0912081        -4.05452
LJ          0.078088         3.02519        -4.87757
LJ          0.736581        -5.67614          -3.867
LJ           3.46881        0.380402        -2.14307
LJ          -1.64529         5.72143          2.4488
LJ         -0.257669        -1.87715       -0.657558
LJ          -2.12779         5.01797         1.10824
LJ          -2.93994       -0.148968      0.00781623
LJ            1.4099        -2.22742       -0.640942
LJ          -3.13043        -1.78039        -4.42417
LJ          -4.91386        -5.13067        0.987504
LJ          -0.55458        -3.10154      -0.0687562
LJ          0.338263        -2.51242        -1.35125
LJ          -5.86523        0.821017          1.5465
LJ           2.43491       -0.654503        -2.16914
LJ          -2.17152        -2.26107         1.38011
LJ          -5.68285        -2.15247        -3.54718
LJ          -5.07161         0.38206        -1.20118
LJ          -6.30163         2.12123         1.70342
LJ           5.11238         1.17659         2.95515
LJ           2.26118         4.94017        -5.67649
LJ          -2.97974         3.14004       -0.392425
LJ         -0.464559         2.34623        -1.93747
LJ         -0.197046         -2.4234         4.05949
LJ          -2.49477        -1.68559         4.91505
LJ           4.71948        0.971272        -2.60179
LJ          -2.83195        -3.21044        0.142607
LJ          -3.31016       -0.393788        -1.05549
LJ           -4.3043         5.02219         3.41691
LJ          -2.12817         3.83723         -4.3954
LJ           3.91283        -5.95099         -0.4813
LJ          -4.11544         0.46738       -0.392989
LJ          -3.26037         1.74243        0.824754
LJ       -0.00614778         4.59228         1.08973
LJ          -2.24821        -6.09835       -0.941961
LJ            1.3147           1.004        0.492099
LJ              2.15       -0.976545        0.399937
LJ          0.833774         4.99159         1.79898
LJ         -0.693158        0.309158         1.49185
LJ           2.43168         -5.6311       -0.366244
LJ         -0.962687         -1.3491        0.650163
LJ            -1.277       -0.457043           1.441
LJ          -3.74703         1.86084         3.95095
LJ          -4.12141        -5.71277        0.442116
LJ           4.61491        -5.95594         6.15604
LJ          -2.04173        -3.58556        0.877955
LJ           1.00757        -3.66321         5.27122
LJ          0.938744        -3.07339        0.723673
LJ          0.595601         4.86843         3.40023
LJ           3.77863       -0.848699        -2.35238
LJ           1.93923        -3.20458       -0.544429
LJ          0.871996        -3.41962          1.9308
LJ          -4.69689        -3.86795        -1.16259
LJ          -4.15574         1.36241        0.394772
LJ        -0.0873684         1.08313        0.718959
LJ          -1.74566        -1.16246       -0.601399
LJ          -5.91976       -0.106126        -0.09217
LJ         -0.457218        -1.18898         3.92433
LJ          -1.24538         -2.1088          2.7542
LJ           4.41527       -0.890447        -4.86837
LJ          0.754075       -0.242453        -1.01805
LJ           3.12668         2.10948        -1.56141
LJ           4.12872         3.05664        0.867354
LJ           2.83343       -0.178768        0.794166
LJ          -4.98939       0.0981114        0.535437
LJ          -3.21992         2.12359       -0.266272
LJ         -0.142518        -1.97218        -4.80166
LJ          -3.41488         2.63937        -1.29908
LJ          -1.28833        0.545804         2.45959
LJ           1.67308         6.39255        0.441668
LJ          0.449289       -0.252841         3.82515
LJ        -0.0677112        0.271346          2.4657
LJ           3.63082        0.295316         1.45575
LJ           2.59023        0.690803         1.83833
LJ           2.73576         1.09984        -3.99696
LJ           3.63486        0.602702         2.41874
