108
#Comment!
LJ          0.877931        0.110386        -2.87766
LJ           4.33882        -1.19201          3.0988
LJ           3.24914      -0.0682326        0.817608
LJ             4.798         2.72387        0.670575
LJ          -3.84719        -5.31934        -5.89936
LJ           3.71132         4.30833        0.477867
LJ          -2.70537       -0.716829         4.00552
LJ           4.43317        -1.98963         -4.2231
LJ          -2.01247         3.42933         1.92397
LJ          -3.68674        0.104364        -6.09132
LJ          -3.05557       -0.268753        -5.09535
LJ          -3.51748         3.00996        0.238749
LJ          0.935552         5.89188       -0.686509
LJ          -4.29122        -1.41775       -0.186965
LJ          -2.11972         1.48202        -5.31613
LJ          -1.35807        -2.62865         2.71421
LJ         -0.350175        -3.92669         6.14772
LJ         -0.899167         4.55395        -4.97949
LJ          -2.74278        -2.88546        -6.36235
LJ          -3.88937         3.99716        -5.77089
LJ          -2.25688         1.69563         1.81701
LJ           3.72606         5.66714         1.35055
LJ           6.37559         1.05951        -5.62029
LJ           1.04487        -4.46848         3.10598
LJ          -2.65783        -2.50489        0.282824
LJ           5.91416        -6.40475         -1.7438
LJ          -5.42314          5.7007        -1.31422
LJ          -5.42045       -0.936273        -4.81936
LJ          0.852719         6.28775         1.03897
LJ           1.53664       -0.190896         4.00954
LJ            1.6211         3.90217        -3.97615
LJ           3.58625         6.36756       0.0711063
LJ           5.57291        -1.16219         4.48691
LJ           3.35289        -2.83432        -1.70015
LJ           5.55781         5.24757         1.63044
LJ         -0.649201        -1.29405         -5.3433
LJ          -3.79616         6.29561         5.09511
LJ          -4.36479       -0.293593         1.61451
LJ          -1.43691        -0.83339         5.75111
LJ          -5.88222         4.47544       -0.467742
LJ           4.89508        -2.93086        -2.54792
LJ          0.259128        -4.80701         3.97503
LJ          0.595255        -3.05631        -1.48981
LJ          -3.46331        0.207277         2.39091
LJ           5.46964          4.3986         6.20492
LJ           5.41786        0.614682       -0.538846
LJ            -5.088        -3.26388        -1.79634
LJ          -3.02643       -0.400288         5.84986
LJ           2.25827        -1.26901         5.27316
LJ           5.33457         0.20583        -1.36058
LJ          -1.66786         -3.7261      -0.0794897
LJ          -2.30834         -5.7241         -3.4761
LJ          -2.96194         4.53585        -2.42189
LJ           3.36432         4.83733        -0.40065
LJ           2.45576          5.8606        -2.14031
LJ          -4.01453          5.1213         5.60489
LJ           3.64591         3.21082        -3.90815
LJ          -4.47142         5.11126        -1.96469
LJ           2.41041        -4.37802       -0.267791
LJ           -4.6085         6.39613       -0.784715
LJ          -1.23207         0.36855         5.77683
LJ           -2.8146         3.84382         2.47751
LJ          -4.93247         6.15681         5.69623
LJ           4.20941        -6.24778         1.11406
LJ           5.96093        -6.22306         2.32334
LJ           3.12512        -6.08748        -1.98475
LJ           3.34622         -1.5975        -1.16436
LJ           1.39475         2.80249        -3.83264
LJ           5.50877        -1.94061        -2.58222
LJ           1.56444         3.71508         2.99193
LJ          -1.43942        0.839825         1.17978
LJ          -4.09696         -1.3106         2.77285
LJ           6.46088        -3.30494        -2.02196
LJ           -1.5141        -3.63831        -6.31785
LJ          -4.34014        -2.66224        -3.85534
LJ           2.22445        -1.15461        -1.30411
LJ           5.01894         3.66869        -5.86316
LJ          -1.82578        -1.61097         4.65624
LJ          -5.30437         -6.4532        -4.20232
LJ          -2.25279         -4.1953        -5.27782
LJ          0.425888       -0.680314        -4.32207
LJ           4.48525        -1.09226        -3.25481
LJ           3.28312       -0.334072        -1.38135
LJ          -2.42769       -0.862009         5.13956
LJ          0.302605         4.68344         6.34171
LJ          -3.50372       -0.375841      -0.0680078
LJ          -1.73792        0.736938         2.38407
LJ          -5.51388           3.261         6.00657
LJ           4.30646       -0.972774         -1.6229
LJ           1.66504         5.26118        -1.56918
LJ          -5.11151         3.98859         4.33093
LJ           6.06913       0.0449944         -2.7173
LJ          -3.88703         4.94622         -5.1257
LJ           1.99739         1.64368         1.30427
LJ          -3.95711        -5.83167         -4.1718
LJ           4.87268        -2.37901        -1.60256
LJ          -1.88294        -1.86299         3.26301
LJ         -0.582851          -4.593          3.3694
LJ         -0.491999        -5.03964         -5.6857
LJ           6.33639         4.89328        -1.22482
LJ           -2.8003        0.511508         1.50715
LJ           2.76128        0.391941      -0.0537786
LJ           3.92186         1.07417        -3.44266
LJ          -1.53059        0.162273        0.304048
LJ          -5.96159         3.08786         1.33181
LJ           4.49052         3.28468         2.03809
LJ           -1.9541        -3.88502        -1.65187
LJ          -5.79019         1.36648        -6.32131
