108
#Comment!
LJ          0.672089        0.626612        -2.54876
LJ            5.8792       -0.356381         6.16918
LJ           5.34175        0.203194        0.199205
LJ           5.19286         4.08549        -2.10056
LJ           6.29217         4.10012         -3.3613
LJ           5.42152         1.87628         1.22927
LJ          -1.91793        -0.80211         1.81957
LJ           3.06182        -1.03509        -3.82661
LJ           -3.9907         5.02129         3.48734
LJ          -3.30034        -3.55677        -4.92671
LJ         0.0483096         2.29742        -5.61068
LJ          -4.06821         5.08743        -0.48519
LJ           2.79255        -4.12263       -0.117855
LJ           -1.2426        -5.07395        -3.65757
LJ         -0.656604         4.13483        -4.35346
LJ          -2.34164        -0.47114          4.2101
LJ          -4.27241        -1.16505         -5.1242
LJ        -0.0818917        -3.63326         6.25542
LJ          -2.55512        -1.42553        -3.78568
LJ          -5.63404        -2.84068         3.69052
LJ          -1.65812        -2.68703        -3.82239
LJ            3.1545         6.42923          2.7377
LJ           5.50076          1.9179         3.61046
LJ         -0.715544        -5.92935         2.32643
LJ           -5.5578         1.01995         1.64865
LJ          -5.57492        -4.44067         2.29044
LJ           6.37684        -3.85378          1.9673
LJ           -4.1059         1.13294         5.73271
LJ          0.535388         2.35854         1.98073
LJ          0.146939         -1.3171         1.94844
LJ           1.26732         4.88846         -4.3761
LJ           3.02148        -5.16142         2.65319
LJ           5.03391         3.58566          4.8837
LJ           1.34791         -4.7941        -3.67111
LJ           5.25651         2.67665         2.19129
LJ           1.92978       -0.987657      -0.0684849
LJ          -2.60893        -5.54109          6.2231
LJ         -0.813603        -1.02933         1.99105
LJ          -2.06102        -0.21249         3.16645
LJ          -6.25412         3.62461        -1.41912
LJ           4.98505        -1.28273        -1.85362
LJ           4.07744        -3.52995         5.30438
LJ          -2.54366        0.606439        -1.31968
LJ          -2.30758        -1.85968         2.79465
LJ          0.659984       -0.796966         2.89825
LJ          -5.39961        0.888638         2.77709
LJ          -6.39996        -2.36428        -2.69053
LJ          -3.67282        -2.36049        -5.16754
LJ           3.53422        -3.53247         6.40364
LJ           4.36174      -0.0212051         4.15173
LJ           -3.1015        -2.14827          2.1521
LJ          -1.60705         3.57848        -4.07131
LJ          -5.78237        -4.06595         0.33386
LJ           4.04719         3.29989        0.504995
LJ          0.417447          4.9281        -2.18567
LJ          -2.06681        -4.59786           6.248
LJ           -5.4833          2.5358        -2.12696
LJ          -4.88949         3.05579        -3.61578
LJ           6.39233         6.04895         3.50624
LJ           1.28627        -2.78908       -0.197578
LJ          -3.95368        -2.03654         5.66295
LJ          -2.22258          5.0277         4.22278
LJ           5.85822         2.79169        -3.74237
LJ          -6.30706         3.02475        0.951638
LJ           -5.8592         5.04682       -0.259448
LJ           3.17146        -6.36327        -4.37305
LJ          -6.01834         4.34791        0.760108
LJ           2.41853         2.60573         5.08369
LJ            3.8661        -1.58686        -2.21113
LJ           4.40356         3.10512         1.94186
LJ         -0.688467         0.31269         1.36157
LJ         -0.182095       -0.481222         1.17868
LJ          -2.39015        -3.47717        -2.19919
LJ          -2.94885        -3.38081         2.49641
LJ          -6.09053         6.34879         5.42034
LJ           3.45809        0.126086        0.861712
LJ           1.22876        -3.46443        0.874014
LJ          -1.23348        -2.43531         2.83163
LJ             4.888         5.98304        -4.91968
LJ          -3.03382        -2.92893         3.47556
LJ          0.484526       -0.893291         4.59493
LJ           3.61515        -2.90454        -1.77242
LJ           2.76306        0.183149       -0.992132
LJ          -1.36086        -1.15937          2.8595
LJ           4.36218        -6.02484          -4.705
LJ          -4.87021        0.178568        0.977299
LJ         -0.489478         1.21452         2.52591
LJ          -2.29457        -3.63742        -3.36322
LJ           3.92446        -2.94451        -2.88629
LJ          0.906673        -6.28124         3.77584
LJ           6.20761         5.50815         4.36361
LJ           5.89349       -0.257715        -1.61316
LJ           3.60818         4.44829         -3.2209
LJ           2.37301         2.18354       -0.616223
LJ           6.14851         4.29489        -2.14639
LJ           4.36441         -2.0385        -1.17874
LJ           -5.0389      -0.0118424         2.60332
LJ          -2.93922         5.76284        -4.50364
LJ          -1.45152        -3.34417        -1.93295
LJ          -4.97628         3.20701        -1.50143
LJ          0.399015           1.137         1.89444
LJ           2.47661       -0.846887        -1.14989
LJ           2.68311        0.140252        -5.82417
LJ         -0.398969         1.62684         1.19011
LJ           5.29585         1.53368         2.52088
LJ           3.21229         2.24933        0.975893
LJ          -4.99679        -1.29019        -2.69451
LJ           5.75448         1.64087         4.64166
