108
#Comment!
LJ          -5.92246       -0.691987        0.913064
LJ          -2.69548        -6.45749        -6.20926
LJ          -6.45057        -6.42818        -5.48578
LJ            2.6117        -3.49331        -6.41506
LJ           3.66837         6.38869        -5.02118
LJ           3.49072          1.5271         2.80764
LJ           5.25974        -6.27705        -5.42088
LJ            5.9184         1.81965         3.99929
LJ          -3.19106          4.6693        0.858107
LJ           3.98095          2.2236         1.16746
LJ          0.216843        -1.09141        -1.24995
LJ           5.24304         3.03455        -2.01818
LJ           1.99522        -5.27783         3.26986
LJ           1.94204       -0.352215         5.51864
LJ          -6.46274        -4.62177         2.49718
LJ          -3.62853         1.71718        -4.80987
LJ          -2.77342       -0.827684        -5.64227
LJ           5.39623       -0.758141         3.55191
LJ          -5.20623         4.28434         3.48021
LJ           2.82337         1.77704         1.63896
LJ           4.47772        -2.62583         2.16839
LJ          -5.61196        -4.69374         2.75387
LJ          -5.34049        -1.28862         -4.7286
LJ          -5.47175        -2.27668         3.96283
LJ         -0.361063        -2.24751        0.185408
LJ          -4.55442         1.60481        -2.65722
LJ          0.869494        -3.04938         5.45881
LJ           3.81135           5.022         4.16225
LJ            2.1183         1.21781       -0.117733
LJ          -5.34041       -0.296664         4.15305
LJ           3.71007         1.94766         5.15371
LJ          -2.40382         2.61375        -6.13954
LJ           3.93231         5.74569          1.6196
LJ          -1.11141         1.27404         5.77743
LJ            6.1084         2.49456        -5.41142
LJ           4.82186         1.72429         3.41713
LJ          -5.35492         5.78491         -5.9195
LJ          0.429592        -2.61224          2.9562
LJ           4.36453        -2.54229         3.92655
LJ        -0.0412194        -5.82773        -1.06079
LJ          -6.11317        -1.84995         2.98218
LJ          -2.48229         2.01699          -1.744
LJ           1.13977         6.31852       -0.159672
LJ          -2.46871         1.48485        -1.08245
LJ          -6.30951        -4.85668         4.45698
LJ         -0.898692        -3.42134         3.15311
LJ          -1.05624        -3.70767       0.0323197
LJ          -5.73152        -4.30028         5.37842
LJ           2.12206         4.73183        -4.21183
LJ            3.2856        -2.50401         1.48247
LJ          -0.26415        -6.03984       -0.902228
LJ           1.68806           0.846        0.605828
LJ           3.17425        -1.79666       -0.823205
LJ          -5.18036        0.831949         4.20061
LJ          -1.17701         2.09202        -2.77167
LJ          -1.27538          6.2475        -3.12678
LJ           4.71772       -0.607693         4.58856
LJ          -2.13593        -4.26162        -5.25154
LJ          0.267809         3.63863         2.77453
LJ          -4.80535        -5.17566       -0.942726
LJ           3.34709        -1.40606         3.32561
LJ            1.4397         5.73475         3.64254
LJ           3.19286         2.49664         4.00403
LJ           6.30935        -5.70324        -4.46494
LJ           1.89972        -2.49049         3.63835
LJ         0.0800828         3.97775         1.53902
LJ          -1.59457        -1.86851         4.58372
LJ           4.11701       -0.703771        -1.61903
LJ          -4.49276        -3.38518        -2.57909
LJ           4.20164        -1.72842         1.63835
LJ          -3.79438        -5.72933        -2.00007
LJ           2.72252         1.39673         4.44327
LJ          -3.82032         -4.8197        -3.12893
LJ          -2.00585        -4.99467         6.45353
LJ           -5.1959        -5.91259         5.19401
LJ          -3.99868         5.81202        -1.84592
LJ            5.4494        -5.01522       -0.946311
LJ           -5.1151         3.61409        0.415022
LJ           6.12631         0.80159        -6.40567
LJ          -6.45187        -2.49866        -1.65741
LJ          0.238875        -2.90366        -5.30014
LJ           4.76546        -3.54585        -6.37696
LJ           2.16618        -3.50184        -1.85116
LJ          0.648072        -4.63042         -6.0682
LJ           6.07618         4.78215         2.08145
LJ           6.23407       -0.314322         -2.3521
LJ          -1.17693       -0.153585         2.57989
LJ           1.08384        0.609357        -5.33234
LJ          -4.69548        -5.10423         6.13374
LJ           2.12973        -2.40526        -5.54603
LJ         -0.686548         6.20923        -1.41946
LJ           3.28212        -3.75457         4.91529
LJ          -5.12789        -4.66823        -2.75554
LJ          0.451078          3.3191        -5.51666
LJ          -6.39078         4.98825         5.60332
LJ           5.22402        -3.87512        -3.70907
LJ           6.35559         2.63513        -4.94008
LJ           4.29598           1.374        -2.61005
LJ         -0.384413      -0.0825069         0.63647
LJ          -3.74735        0.770413        -2.87326
LJ           6.27395         5.07384        -0.70709
LJ          -2.29103         4.62569         4.87172
LJ          -3.55424         1.77116         3.57312
LJ           3.64778        -5.37239        -3.91154
LJ           2.94447        -4.82935        -5.49365
LJ            -4.093         6.07282        0.787844
LJ           6.02847       -0.374861          2.7188
LJ           6.16781         -2.4166        -5.97847
