108
#Comment!
LJ           4.30324        -4.74004        -1.01322
LJ          -6.22475          3.9409        -5.74153
LJ          -5.69773        0.324203        -2.23575
LJ           4.08549        0.404984        -4.86778
LJ           5.42804        -3.65252        -3.53558
LJ           4.94104        -2.84969        -2.55641
LJ          -2.92344         4.65944         3.11524
LJ           2.05013       -0.745012         3.74816
LJ          -2.40853        -2.47697          5.6941
LJ           5.58031         3.83623        0.181666
LJ          -2.84228        -3.24811         -3.5883
LJ           1.25153        -3.76011           5.074
LJ           4.16271        0.223212        -3.26279
LJ          0.726268        -4.53101         1.19882
LJ           1.92075        -4.98618        -5.72276
LJ           1.35353        -2.07284         5.89912
LJ           2.96709        -6.38738         2.62983
LJ          -3.62401        0.546197          2.9353
LJ          0.233229        -5.83352         6.15612
LJ           1.35257        -3.32944         4.91336
LJ          -3.36751         5.44224         -5.8384
LJ            -1.223        -2.67591        -3.05857
LJ           4.89984        -4.16973         1.46963
LJ           1.85633         4.15558         6.19451
LJ           4.86788        -4.62219        -2.59439
LJ          0.572007         2.47294         5.42948
LJ           1.86013         1.08429        -5.32444
LJ          0.550003        -3.56387         2.93708
LJ           2.07599        -3.78954       -0.677289
LJ           3.61815         5.85689       -0.997641
LJ           1.29448        -1.88475        -2.55952
LJ          -6.37206         1.33098         5.77814
LJ          -3.49859        -5.79104        -5.09765
LJ          -3.46166         1.15695         2.57916
LJ          0.288412         1.14519        -2.75345
LJ           2.89506         5.25535         4.34544
LJ           2.56542         2.67412         2.46971
LJ          -5.41792         2.90531        -1.24535
LJ           5.02711        -1.82033         -6.2417
LJ          -5.65207         5.74065         3.91572
LJ          -2.54702         5.10638        -2.00741
LJ          0.630032         4.64533        -4.54504
LJ           1.59881        -4.61674        -2.59269
LJ           5.88764         4.97337        0.877862
LJ           3.39967         1.80548        -5.48208
LJ          -1.88382        -2.48228        -3.77216
LJ          0.963079       -0.987099         4.76888
LJ           5.99014          1.7409        -5.26779
LJ          -3.40902         5.45356         1.78565
LJ          0.635807         1.21242        -3.36125
LJ          -4.98132        -6.34946        0.774105
LJ           1.10912          4.4959       -0.672378
LJ          -4.30727        -5.78115       -0.601844
LJ           4.93173         -2.8636        -3.11343
LJ          -4.34737        -5.90066        -1.70254
LJ           4.27494         1.66908        -5.79565
LJ         -0.263391        -4.98384         3.79482
LJ           4.55484         1.53502        -1.12615
LJ           5.24351         5.16319         1.77349
LJ          0.208913         -4.7508         2.18463
LJ           3.13742         3.26999         5.29394
LJ          -3.70479        -5.79979        -2.83913
LJ           2.00936         2.40158          1.4551
LJ           2.88463        -2.98667        -5.30879
LJ          -5.21287        -5.75873        -1.26941
LJ           3.36405        -5.78602        -6.11443
LJ          -4.04237        -4.04382        -3.76191
LJ          0.428589        -3.92706         0.64269
LJ           2.00405         3.46547         3.00425
LJ          -4.56669         1.51125        -2.96599
LJ          -2.06292        -3.28861         5.11818
LJ          -1.85815        0.892993         5.51429
LJ           1.53495        -3.79727        -1.65245
LJ           4.80297         5.23308         3.38539
LJ          -6.45691        -5.93175        -5.01973
LJ           3.61205        -2.98811         3.81541
LJ          -3.74352          4.1629       -0.546783
LJ          -3.51408         1.89937        -6.18813
LJ            1.8412        -2.96072         6.44659
LJ          -4.16922         -5.2146         2.01231
LJ         -0.779577        -1.20741        -1.60242
LJ           5.27912         1.56854        0.701543
LJ          -3.89285       -0.599208         2.68018
LJ          -6.00411         -1.5904        -3.99965
LJ          -4.11779         5.21853         3.47045
LJ           2.57385       -0.302944        -0.37032
LJ           3.79165       0.0466247         4.37631
LJ           3.91485        -3.31824        -6.12274
LJ          -2.78582        -5.17504       -0.478419
LJ           3.77389         2.37684          3.4275
LJ          -5.63096         5.73784       -0.238895
LJ          0.522661         3.12655        -1.27088
LJ          -1.70235         5.96006        -5.02743
LJ          -6.42591       -0.239433         3.41394
LJ           2.00498        -4.21125         2.00685
LJ           5.28245         3.61719        -4.84674
LJ          -4.48586        -6.21638         3.14051
LJ          -6.37803         6.02314        -2.92369
LJ           2.61999         1.33383        -4.86807
LJ           5.47038          4.2238        -4.88134
LJ          -5.84735        0.167205         6.36906
LJ          -1.63087        -5.33192       -0.205997
LJ           1.62767       -0.941114        -3.32961
LJ           5.87366       -0.759387        -3.49596
LJ           2.39636         5.53667        -1.14207
LJ           5.44997        -1.36509       -0.847445
LJ         0.0355684         4.14151       -0.294075
LJ           2.47016         5.48322        0.627248
