108
#Comment!
LJ            1.2177        0.987273        -1.77063
LJ           5.21643       -0.743147         5.30409
LJ           4.73611         0.71487        0.181996
LJ           4.22198         3.20952       -0.279433
LJ          -5.18778          5.6069        -4.01754
LJ           4.60329         2.40208         1.32866
LJ          -2.67942       -0.259871         3.13536
LJ           3.89741        -1.44747        -3.62143
LJ          -3.56051         3.87307         2.87013
LJ          -3.68066        -2.29388        -5.10085
LJ         -0.954322         1.52786         -5.5145
LJ            -3.681         4.52225        0.205026
LJ           2.06132        -5.05193       -0.392414
LJ          -2.31737        -4.05951        -2.20074
LJ          -1.12245         2.99623        -4.78765
LJ         -0.986836        -1.67701         4.28203
LJ           -2.3006         -1.8677         -5.5256
LJ         -0.284261         -5.2763        -5.99507
LJ          -2.16671        -2.27776        -4.50219
LJ          -4.19246        -4.42814         4.70097
LJ          -2.17724       -0.938873        -1.76631
LJ           3.79475         6.20372         2.03093
LJ            5.8331         1.57069         4.83695
LJ          0.476213        -4.22923         1.72596
LJ          -4.65478       0.0816253        0.231702
LJ          -5.83368        -5.82384        0.863587
LJ          -6.20918        -4.44307        0.798843
LJ          -4.21133        0.188657        -6.44012
LJ          0.467256         3.64174         1.55682
LJ          0.706159       -0.841182         2.72689
LJ           1.45893          4.7545        -4.51809
LJ           3.06869        -6.36828         1.13243
LJ           4.72742         1.69861         4.72399
LJ            2.2537        -3.83693        -3.10612
LJ           5.60715         3.29428         2.29665
LJ            1.1274        -1.22914        -1.41949
LJ          -3.21359        -6.15886         5.43688
LJ          -2.26101       -0.655378         1.86064
LJ          -1.62402      -0.0520451          4.3043
LJ          -5.89529         4.51975        -1.67663
LJ             5.384        -2.06849         -2.4118
LJ           2.73075        -4.05487         4.75209
LJ          -1.21412       -0.649439        -1.25369
LJ          -2.59804        -1.51558         2.50881
LJ           2.29872          1.1122         3.98366
LJ          -6.40438        0.952884          1.6592
LJ          -5.41757        -3.18344         -2.7475
LJ          -3.79677         -1.9745        -6.26437
LJ           3.50732        -2.46956         5.75409
LJ           4.46555        0.241548        -6.18458
LJ          -2.66066        -2.88385         1.20399
LJ          -2.19483          4.7968         -3.6048
LJ           -4.9003        -5.32667        -1.20848
LJ           3.91099         4.27437        0.215275
LJ           1.10386         5.26467          -2.175
LJ          -2.59951        -5.47513         6.12952
LJ           5.94034         2.85781        -2.69304
LJ          -4.55008         3.68965        -3.11914
LJ           5.33928        -6.43558         1.79809
LJ         -0.777628        -4.14087       -0.405101
LJ          -3.56712       -0.813166          6.0602
LJ          -2.33342         4.78767         3.17301
LJ          -6.45123         4.85656        -4.54204
LJ           5.60843         4.53756        0.943008
LJ          -6.41214         5.83133        0.531034
LJ           3.48462         6.00997        -2.87579
LJ           5.30574        -6.07386        0.851888
LJ           2.05654         2.65709        -6.44202
LJ           4.64487        -1.48245        -2.85701
LJ           3.74009         3.12747         1.79869
LJ          -1.19153        0.961614         1.39893
LJ          -1.31447        -1.10543        0.928267
LJ          -4.21484        -4.10808        -2.62121
LJ          -3.18496         -3.8133         3.97486
LJ          -5.54918        -5.09608        -5.82443
LJ           1.98723        -1.70693        0.670998
LJ           2.55666        -1.03873         3.07194
LJ          -1.74774        -1.93116         3.29054
LJ            6.2084         6.05279        -4.52094
LJ          -3.26543        -3.55248         5.26363
LJ          0.543312       -0.773221         6.01262
LJ           3.96099        -1.95526        -2.00613
LJ           3.32525        0.355394       -0.941599
LJ          -1.90393       -0.987175         3.75321
LJ           2.85312         5.98407        -5.22044
LJ          -4.29759        -0.57619         1.19402
LJ         -0.986501         1.57581         2.64631
LJ          -3.39344        -5.96017        -4.72217
LJ           3.40047        -2.97851         -2.3581
LJ           1.42295         6.18561         1.97035
LJ          -6.14651         4.94752          4.3744
LJ            5.4517       -0.781184         -1.7469
LJ           4.94148         4.94487        -3.73879
LJ           1.68671         1.40239       -0.969825
LJ          -6.04416         5.59374        -2.79784
LJ           4.87007        -1.59547        -1.46755
LJ          -4.38091       -0.807787         3.09603
LJ          -1.76551         6.39658        -6.29393
LJ          -1.33098        -3.38045        -3.52885
LJ          -5.76345         3.35869       -0.998928
LJ         -0.330176        0.271287         1.67965
LJ           2.38621       -0.253925       -0.848449
LJ           3.14327        0.473269        -4.92873
LJ         -0.412187         1.47803        0.621512
LJ           6.17567         2.27737         2.14555
LJ           3.46821          2.9918        0.631044
LJ          -4.25982        -2.22987        -2.61057
LJ          -6.21214         1.55967         5.55341
