108
#Comment!
LJ           5.64595         6.21931        -3.95278
LJ          -3.82615        0.178456        -3.81129
LJ          -3.60382        -1.68367       -0.854544
LJ           1.23382         -6.2732         1.55939
LJ          -0.45636        -2.03981        -3.55072
LJ           3.85007        -5.20024         4.76888
LJ           -1.3319        -2.38771        0.458216
LJ         -0.308317       -0.769359        -3.04587
LJ           6.20597        -2.00832        -5.55723
LJ           1.32816        -2.78029        -3.39022
LJ           3.04344        -6.14596        -6.01925
LJ           3.97246        -4.73067        -1.62938
LJ          -4.76728       -0.456132       -0.618386
LJ          -1.27762          3.0879         -4.0159
LJ          -1.76021         1.63583        -1.66774
LJ          -3.92005        -6.31391       -0.111543
LJ          0.640787        -1.63905        -3.68867
LJ          0.625674         -1.2524        -5.39032
LJ          -1.62372       -0.599993        -2.02151
LJ           1.80167       -0.189358        -1.11213
LJ          0.632238        -3.16489        -4.13915
LJ           1.66353         -1.3182        -5.28911
LJ            3.3608         2.00587         1.21342
LJ           5.69198       -0.242812         1.61067
LJ          -5.84492       -0.718398        -5.67841
LJ          -4.47743       -0.336051        -4.75644
LJ          -4.35536        0.610861        -5.53307
LJ          -1.40849         2.11002        -5.36717
LJ           -5.9107         1.44828         5.92534
LJ          -5.64904         3.15507         5.27742
LJ          -1.40629          2.8583        -2.82716
LJ           1.66702        -1.17332        -4.18295
LJ           3.48504       -0.255454         -3.6739
LJ          0.133102         2.85619        -4.74793
LJ          0.597656        -6.20818        -3.61947
LJ           3.46427        0.288236        -2.16734
LJ          -1.54744         5.78691         2.15229
LJ         -0.377929        -2.05823       -0.774505
LJ          -2.14955         5.33225         1.11046
LJ          -2.86091       -0.112653      0.00609955
LJ           1.26276         -2.3057       -0.623265
LJ           -2.9142        -1.67883        -4.28719
LJ          -4.69218        -4.75088         0.92536
LJ         -0.436101        -2.97071       -0.147143
LJ          0.514699        -2.47773        -1.40066
LJ          -6.09532        0.682476         1.39887
LJ           2.45252       -0.626662        -2.06464
LJ          -1.98319         -2.2777          1.6135
LJ          -5.48831        -2.02561         -3.4318
LJ          -4.77081        0.408954        -1.28409
LJ          -6.19661         2.10687         1.59396
LJ           5.43798        0.979281         2.75218
LJ           2.05306         5.41327        -5.44906
LJ          -2.67723         3.13584         -0.4331
LJ         -0.426157          2.1295        -1.77633
LJ        -0.0937459        -2.21713         3.71932
LJ          -2.75515        -1.78637         4.23399
LJ           4.46531        0.876792        -2.46516
LJ          -2.72403        -2.95128      -0.0824494
LJ          -2.94937       -0.364059        -1.03201
LJ          -4.23471         4.77674         3.11827
LJ          -2.07428         3.76145        -4.13916
LJ           4.27427        -6.26748       -0.467907
LJ          -3.98062        0.358189        -0.24875
LJ          -3.06685         1.57525         0.95103
LJ        -0.0309123         4.39882        0.856348
LJ          -2.08759         6.41423       -0.897924
LJ           1.03726          1.1462        0.460635
LJ           1.91586       -0.861438        0.406326
LJ          0.517712          5.1422         1.72513
LJ         -0.461545        0.343334         1.57563
LJ           2.33672        -6.02248       -0.424844
LJ          -1.02256        -1.31748        0.762191
LJ          -1.39221       -0.637222         1.45847
LJ          -3.62613         1.65402         3.89655
LJ          -4.10049        -5.47727        0.544936
LJ           4.07703         -5.9015         6.12878
LJ          -2.00014        -3.66684        0.881767
LJ          0.931761        -3.38027         5.10536
LJ          0.935652        -3.01001        0.697393
LJ          0.628604         5.20807         3.27347
LJ           3.66523       -0.704963        -2.41161
LJ           1.93725        -3.25582       -0.354347
LJ          0.987461        -3.43689         1.78976
LJ          -4.53886        -3.78829        -1.00592
LJ          -4.12058         1.33022         0.14694
LJ        -0.0774776         1.14298        0.587312
LJ          -1.80859        -1.24162       -0.385218
LJ          -5.67787       -0.162557       0.0807308
LJ           -0.5402         -1.1373         3.83023
LJ          -1.65806        -2.09375         2.64622
LJ           4.16125       -0.924252        -5.22849
LJ          0.761288       -0.464154       -0.881391
LJ           3.08983         2.12145        -1.48545
LJ           3.91311         2.94111         1.05259
LJ           2.68421       -0.136929        0.739964
LJ          -4.86162         0.20601         0.63197
LJ          -3.28651         2.07359       -0.216126
LJ         -0.368668         -1.7793        -5.27825
LJ          -3.22472         2.44376        -1.24127
LJ          -1.30857        0.585129         2.31513
LJ           1.49648         6.13737        0.622717
LJ          0.396695      0.00238693         3.77938
LJ         0.0170844        0.146643         2.55574
LJ           3.66572        0.414318         1.41924
LJ           2.52998        0.539152         1.70217
LJ           2.54073         1.05603        -4.51284
LJ           3.64137        0.617123         2.61903
