108
#Comment!
LJ          -1.05972        -1.01697         3.29107
LJ           3.50708         6.14017         -2.4354
LJ           -5.3378       -0.958977          5.5632
LJ          -2.75971        -4.05457        -5.36258
LJ           2.36734        -2.46257        -2.65859
LJ          -4.42089         4.77551         1.58031
LJ          -2.42817          5.5089        -2.46514
LJ          -1.57067        -6.39968          4.7621
LJ           -4.1879        -5.18937       -0.997881
LJ           4.58064        -6.06856        -2.33636
LJ           1.50689        -6.03685      -0.0644697
LJ          -2.59776        -3.65026        -1.72189
LJ         -0.779275         2.43369         3.28553
LJ          -3.44466        -3.37119         -5.7429
LJ           5.21162         -4.7959        -4.42555
LJ          -5.09834        -2.64905         2.25507
LJ           5.32099       -0.592521        -5.99133
LJ          -4.92967       -0.335736         5.79137
LJ          -1.03912         1.26829        -1.78209
LJ           4.32788         1.02218         3.38201
LJ           2.60147         4.64066         4.55924
LJ           1.31672        0.418898        -4.68443
LJ           5.82821         6.43857        -2.49536
LJ          -4.60088        -3.58773         1.02114
LJ           3.01309        0.622664        -1.10882
LJ           -2.1002        -4.89505         1.75166
LJ           -6.2353         2.51805        -2.13601
LJ           3.97579        -5.17331         4.27984
LJ          -4.25895        -4.37923         2.58323
LJ          -1.97883        0.167759        -5.70785
LJ          -6.09677         4.19188        0.445567
LJ          -2.43072        -5.54692        -4.07501
LJ          -1.91303        -2.31515        -5.49446
LJ          -2.30988        -1.92493        -1.35634
LJ           1.04458        -6.38648         5.00272
LJ           3.38429        -5.23639        -5.08961
LJ          0.653737        -1.61925         5.38573
LJ          -2.16805        -0.89757         4.74479
LJ          -1.08072         2.30355        -1.59329
LJ          -1.14994         1.33465        -2.71856
LJ         -0.744913        -1.86468         5.76168
LJ          -5.92098        0.175899        0.523867
LJ           6.36502        -3.37365        0.531396
LJ           4.85556         4.57011         -2.4351
LJ          -5.35002        -4.21746          3.7245
LJ          0.161192         2.36457        -4.05228
LJ          -6.45375       -0.459756        -1.89692
LJ          -5.08815         5.12786        -3.40608
LJ          0.213089        -3.22838         -2.0063
LJ           1.12798         2.56196        -1.15728
LJ          -2.34109        -5.91593         3.40092
LJ          -1.46691        -2.43097         4.02372
LJ           1.72806         1.14675        -1.46417
LJ           -5.2717        0.895536        0.240741
LJ            -4.646         5.27238        -3.75952
LJ          -2.75021        -2.85754       -0.396593
LJ           3.07251         5.22829         4.51214
LJ           4.74873        0.509142        -4.91304
LJ           2.50259        -5.95085        -2.82701
LJ          -4.28667       -0.829108        -5.21724
LJ           4.63178         4.46351       -0.467243
LJ         -0.780536         3.84063        -1.75884
LJ         -0.186436        -3.56752          4.6552
LJ          -2.68669         1.15135         1.59154
LJ           1.66106        -0.68951        0.380433
LJ         -0.616106        -3.16196         4.88337
LJ           1.58118        -5.53537         1.32722
LJ           -3.6587        -4.85503          3.8278
LJ          -6.27563         5.80705         -1.0122
LJ          -3.82316       -0.439465         3.70877
LJ          -4.61872        -1.74866        -6.10281
LJ            4.1847        -3.03316        -1.11567
LJ         -0.991993         5.09413       -0.204332
LJ        -0.0930599        -4.76091        -3.88203
LJ          -4.15772        -2.52716         5.68055
LJ           1.82782       -0.165288         4.28181
LJ           3.41219        0.284083         6.38172
LJ          -5.87389        -5.55394        -0.74071
LJ          -2.92599         4.41831        -5.33638
LJ           2.27447        -2.80382         3.47253
LJ          -6.38805        -3.49991        -2.68401
LJ           6.31724         3.48419         4.02933
LJ           -5.4234        -3.25957         2.12518
LJ          -4.53567            5.46        -1.57815
LJ          -5.38529        -5.33921        -4.65443
LJ           5.74256        -6.40132         2.64939
LJ           3.74071        -0.43372        -2.89256
LJ           3.42683        -6.25038         1.88839
LJ           1.53422        -4.38611         5.27434
LJ           6.41938         3.20756         5.06432
LJ           2.05533         3.68665       -0.452667
LJ           -2.8891        0.294391        0.589386
LJ           4.71671         6.26165         2.90859
LJ            5.4052        -2.55407        -2.79373
LJ           4.38478         5.92778        -3.75467
LJ           2.09618        -3.32052         2.56381
LJ           -0.6896       -0.335547       -0.456843
LJ          -5.88894        -5.78784        -4.01644
LJ           4.54898        0.856466        0.589822
LJ           1.70926          5.4896         4.11401
LJ           4.79124         4.69128        0.445994
LJ          -5.24678        -5.45002         1.97562
LJ           2.24669         5.45739        0.289727
LJ           4.45696       -0.611175        0.104294
LJ          -2.38935        -3.29273        -4.02895
LJ            1.9509      -0.0186352        -5.89438
LJ          -5.35552         5.32828         3.06057
LJ          -5.54562        -3.49433        -6.41107
