108
#Comment!
LJ          -2.83172        -2.95015        -3.01454
LJ          -1.99608        -2.55283        -2.88661
LJ          -3.13485         -2.2682        -2.34722
LJ          -1.63479        -3.28961        -1.99283
LJ         -0.687871        -3.11704        -2.82974
LJ          0.659493        -2.22012        -3.40168
LJ          -1.38443        -2.26938        -2.01543
LJ        -0.0419668        -3.04552         -2.0737
LJ           1.78883         -3.2717        -3.22341
LJ            1.5951         -1.9704        -2.97469
LJ          0.954993        -2.73572        -2.51008
LJ           1.81771        -3.23483        -2.18134
LJ          -3.47125        -1.09985        -2.86325
LJ          -1.82305        0.164012        -3.13324
LJ          -2.98637        0.450579        -1.85505
LJ          -2.22365        -1.43563        -1.89132
LJ           -0.8714        -0.81235        -2.92816
LJ         0.0669095       -0.439685        -3.40682
LJ          -1.22729        0.385751        -2.12692
LJ          0.133254        -1.04428        -2.16656
LJ          0.963681         -1.0737         -3.0241
LJ           1.71497        0.444474         -2.8487
LJ           1.17668       -0.319934        -1.75052
LJ           2.70935        -1.01981        -1.90418
LJ          -3.44049        0.944011        -3.41254
LJ          -2.66015         2.17275        -3.28267
LJ          -3.21187          1.6936        -2.29289
LJ          -2.21696         1.22845        -2.15029
LJ          -1.28063         1.01648        -3.06509
LJ          -0.39403         1.75746        -3.07878
LJ          -1.39396         2.27863        -2.48894
LJ         -0.447311         1.04235        -2.14628
LJ          0.872987        0.654875        -2.16968
LJ           1.63276          1.8132        -3.03975
LJ          0.838521         1.96202        -2.20469
LJ           1.64479         1.50753         -1.9321
LJ          -2.88586         -3.5276       -0.863247
LJ           -2.0385        -2.59568         -1.0012
LJ          -3.21122        -2.77391      0.00824232
LJ          -2.19236        -2.76938       0.0655341
LJ         -0.848606        -3.00179       -0.912245
LJ           0.20447        -1.77305        -1.32176
LJ          -1.29936        -1.47761       -0.266646
LJ       -0.00157298        -3.04616        -0.36182
LJ          0.436454        -2.93268        -1.24353
LJ            2.7663        -1.84687       -0.869598
LJ           1.09019        -1.93193        -0.38792
LJ           1.83591        -3.04688        0.113813
LJ           -3.2902       -0.370727        -1.17723
LJ          -1.90202        0.116113        -1.54353
LJ          -3.73942       0.0166559       -0.226006
LJ          -2.41256       -0.838854       -0.540904
LJ         -0.619262        -1.67536        -1.94923
LJ          0.147615        0.437686        -1.20329
LJ         -0.828437        -0.15497        0.143064
LJ         0.0122783        -1.14952         0.39275
LJ           1.05055        -1.31262        -1.26408
LJ           2.16362        0.150192        -1.30929
LJ          0.731866       -0.205987        -0.22606
LJ           1.77458        -1.02515      -0.0373037
LJ          -3.25923          1.4054       -0.903194
LJ          -1.84198         1.97123        -1.40317
LJ          -3.65851         2.24702        -0.33694
LJ          -2.18726        0.712052       -0.122289
LJ           -1.1957        0.721077       -0.639719
LJ          0.051021         1.80921        -1.44491
LJ         -0.933381         1.59929       -0.282554
LJ          0.124913         1.41794       -0.460706
LJ          0.822033         1.11888        -1.34077
LJ           1.69978          2.1317         -1.0295
LJ          0.833684         1.94149        0.196943
LJ           1.96943          1.4888        0.214961
LJ          -3.03043        -3.13993         1.08158
LJ          -2.24605        -2.01509         1.48752
LJ          -3.06365        -1.67502         2.03801
LJ          -2.29922        -3.48295         1.96217
LJ         -0.678754        -3.60475         1.43157
LJ        -0.0601024        -2.55651          1.1493
LJ         -0.572126        -1.49881         2.20463
LJ          0.258965        -2.99865         1.96262
LJ           0.66968        -3.27628        0.755557
LJ           2.21939         -2.2637        0.932602
LJ           1.27633        -2.32494         1.93817
LJ           2.05236        -3.39026         2.12036
LJ          -3.18446        -1.16939         1.23244
LJ          -2.54226      -0.0858913          1.0063
LJ          -2.91887        0.159222         2.15548
LJ          -2.43829       -0.679177          1.8281
LJ          -1.43223       -0.643208         1.03529
LJ         -0.262356       -0.491567         1.21676
LJ         -0.977895       -0.113637         1.85399
LJ          0.250229        -1.17949         2.69222
LJ           1.26936        -1.25847        0.921048
LJ            2.0219        0.371716         1.02209
LJ           1.54698        0.344689         1.94789
LJ           2.05499       -0.962302         1.71955
LJ          -3.16144         1.10089         0.86479
LJ          -2.16919         2.36572         1.00926
LJ          -2.88608         1.75009         2.55385
LJ          -1.75946         1.17512         1.71847
LJ         -0.839792        0.810532         1.50185
LJ         0.0331828         2.50436          1.0725
LJ         -0.888289         2.06262         2.46822
LJ         -0.249106        0.990626         2.49315
LJ           1.44169         1.36441          1.0249
LJ           2.35153         1.84622         1.11304
LJ          0.984682          1.6158         1.97669
LJ           2.47985         1.00486         2.48543
