108
#Comment!
LJ          0.827153        0.713286         6.27717
LJ           1.78495        -6.26004         4.57034
LJ          -1.37052        -5.68331       0.0362741
LJ           5.02042       -0.958313        -3.41854
LJ          -4.93533        -3.00146        -5.22778
LJ            -1.658        -3.96868       -0.809087
LJ          0.409756        -5.86563         4.42597
LJ           -2.0275        -3.04064         2.66574
LJ         -0.589529         3.31336        0.057886
LJ           1.91985        -1.48119        -5.21523
LJ          -6.24319         2.93059          2.7006
LJ          -4.03612        -4.86027         4.52052
LJ           2.31133        0.465648         3.91435
LJ          0.867053         5.68265         2.83066
LJ           3.26431        -3.85591         4.99545
LJ          -1.16408        -4.01382        -3.08205
LJ          -4.44484         3.75511        -2.77704
LJ          -1.66618         -3.0198         3.54724
LJ           5.62678        -2.28668       -0.281395
LJ         -0.606493        -5.42628        0.977958
LJ           5.89703         2.38584        -3.74051
LJ          -1.87603        0.381329        0.985931
LJ          -3.32224         6.34131        -1.97867
LJ          -4.85493        -3.36943         1.37731
LJ        0.00824129         6.42857       -0.254375
LJ          0.257452       -0.469703         3.99049
LJ           4.23699        -1.51178         4.05008
LJ          -5.79059         5.98678         3.25549
LJ          -4.24076        0.591963        -5.60219
LJ          0.519557         5.73825         2.42338
LJ          -3.11975        -3.31647        0.151422
LJ          -2.86046       0.0104083       -0.369051
LJ         -0.294314         3.04796         3.29766
LJ          0.371835        -4.90871         0.41239
LJ           2.65873        -2.70087         2.93728
LJ           5.29781         -4.3266       -0.811321
LJ          -2.68449         5.55658         4.18023
LJ           2.19838        -3.43457        -2.56473
LJ          -3.46874        -4.07169         -5.1086
LJ          0.911978        -5.97026        -4.67511
LJ           2.29372         3.50019        -4.34542
LJ          -5.50845        -1.36245         1.12495
LJ         -0.966955         -2.7677      -0.0636578
LJ         -0.812444         -5.9781         3.30323
LJ         -0.339805         5.49123        -5.29489
LJ           5.23312         3.28014         -4.3516
LJ           -5.8613        0.256158        -2.75935
LJ           5.72016         3.64936        -4.44463
LJ           3.93311         5.44547         6.38731
LJ          -4.35588        -1.43561         5.25495
LJ           4.08877         1.47562        -1.01234
LJ           4.77739        -2.74977        0.636852
LJ           -6.3245         5.29756         2.76012
LJ         -0.336557        -5.47955        -5.29737
LJ          -5.34105        -5.37191        -6.13998
LJ          -5.58707          6.1107         4.34189
LJ           5.23012        -5.86055        -3.09698
LJ          -1.72677        -5.07817        -1.93822
LJ           3.64212        -4.31829         5.69049
LJ            4.0893         6.27472         5.93309
LJ          0.592138         4.10216         4.75467
LJ          -4.66603       -0.760054         6.34509
LJ          -1.70439         5.23861         6.06389
LJ           2.27274         5.25238         1.52003
LJ           2.02013        -3.05243        -5.79281
LJ            6.1506        -3.64058       -0.554412
LJ          -3.29025         3.44776        -4.79813
LJ          -3.65969         6.39305        -3.30449
LJ           5.38277        -4.72537        -1.78068
LJ           5.43699        0.137887         2.12965
LJ           2.59212        -4.80008        -5.26871
LJ           5.63346        -3.13684         2.49758
LJ         -0.203826        -2.45303        -4.17831
LJ          -3.76376        -1.56584        -1.33254
LJ          -2.45532         3.11286         2.52724
LJ          -4.86803        0.499447         1.22275
LJ          -6.15503        -1.12153        0.230684
LJ          -3.79382        -1.97954          3.9743
LJ          -2.82144        -3.33371        -2.76707
LJ          0.582997       -0.633965         4.09274
LJ          -4.38746          6.2917         3.68625
LJ        -0.0482396         1.41261        -5.51045
LJ          -4.31525         5.66667        -6.32768
LJ          -1.59893          4.6247         5.60905
LJ           2.63331         -4.4395        -5.65559
LJ          -4.42242         3.97698       -0.810014
LJ           0.19973         1.47461         1.99338
LJ          -5.02315        -2.45027        -4.27759
LJ          -6.27305        0.313877         1.30183
LJ           1.86045        -2.72703         5.61703
LJ           4.00408         2.68014       -0.355232
LJ         -0.375554        -1.19672        -2.52209
LJ            2.0953         -3.3364        -4.78624
LJ           4.31875        -3.20894         3.37773
LJ           4.56864         -6.0569        -3.72789
LJ           5.42165        -4.02977         2.78255
LJ          -2.78016        -5.15094        -3.39858
LJ           5.40951         4.90067         3.40799
LJ          0.940285        0.223917        -1.88517
LJ           5.07334        0.320544        -5.46387
LJ           6.42641        -5.73558         4.67214
LJ          -1.42417        -5.21258       -0.558449
LJ           1.31143         6.21094         5.90857
LJ          -2.03819        -3.49147        -3.33988
LJ           2.33157         2.95329        -6.03824
LJ          -3.06758        -1.81925         4.12735
LJ          -3.98886         -4.9724        -4.21718
LJ           2.46116         5.07157         3.52774
