108
#Comment!
LJ          -2.77763        -4.28645         6.41071
LJ           2.12656        -3.46247        -4.40063
LJ           2.28898        -3.04787         6.37623
LJ          -4.34466        -4.08298         4.36141
LJ           3.37111         -3.3327         6.24068
LJ          -3.74355         2.32934         5.09484
LJ          -4.18312        -1.34043         1.63621
LJ           2.01743         4.83579        -6.22877
LJ          -4.66586         4.24073        -5.33345
LJ         -0.745417        -2.26068         -6.3753
LJ          -2.27443         3.63775        -5.90867
LJ          -5.28385       -0.623568         4.22758
LJ          -5.92095        -4.58274         -5.4978
LJ           5.26011         -6.0283         2.38515
LJ          -2.94375         6.10896        -3.47457
LJ           2.60428        -3.00918         0.24658
LJ           2.74429        -5.87699        -5.33161
LJ          -3.13001        0.816813       -0.578136
LJ           4.77864       -0.298341        0.509441
LJ           4.62035         3.61664        -3.50427
LJ           2.82147        -5.22004        -4.06636
LJ          -4.28402         4.12355        -1.89686
LJ           3.38063         6.23345        -4.91709
LJ           3.66078        -2.54603        -3.12198
LJ          -5.38377         2.41226         2.45279
LJ         -0.159772         2.13478         6.07269
LJ           2.20583        -2.38699       -0.777907
LJ          -6.25097        -1.66934        -3.66958
LJ          -4.17639        0.649523         5.05369
LJ           -1.5788        -2.88864         2.10778
LJ          -3.30566        -1.50564        0.630959
LJ          -2.21341        -1.90264       -0.345676
LJ          -6.13548         4.92781         3.05559
LJ          0.981574         1.50493         3.41926
LJ          -3.27802        0.269631        -6.30795
LJ          -4.17131          1.7711        -6.36102
LJ          -5.82343         2.99772         3.67685
LJ           5.16469        -2.84493        -1.40129
LJ         -0.431749          3.4747        -5.98535
LJ          -4.46177         6.35696         5.67632
LJ          -5.56819        -4.33613        -1.18273
LJ          -3.30061        -6.25652        -2.77056
LJ            3.1528         1.17773        -4.30826
LJ          0.757116         4.05136         2.03025
LJ          -4.14126        -3.15568        -1.47751
LJ          -3.96701        0.747619         5.69875
LJ         -0.842537         -1.3157        -1.25169
LJ          -4.22963        -5.20404       -0.481626
LJ          -6.40127         5.13262        -2.24014
LJ           5.87205         -3.8811        -1.64189
LJ          -1.68748       -0.407311         0.68509
LJ         -0.720475         5.39197         3.98163
LJ           2.60856        -5.57953        -5.47643
LJ           5.05242        -5.29951         6.00069
LJ           2.76755        -5.03351        -3.16109
LJ           4.44316        -6.24963        -3.17581
LJ           4.44603         5.91081         1.04645
LJ          -2.34693         3.85532        -6.07151
LJ           3.27817         3.79966        -2.26488
LJ          -4.78393         6.16742        -1.71108
LJ           2.12707        -2.29286        0.575563
LJ           2.76886         3.79337         2.97502
LJ         -0.213286          -4.385         3.10928
LJ          0.566653        0.126952        0.498755
LJ           1.82598        -2.42336         5.73471
LJ           6.30768        -5.36728         2.89975
LJ          0.681961          3.3652         2.25077
LJ          0.961774         5.41415        -3.34271
LJ           1.68547         6.23656         1.29462
LJ           5.15796        -1.01314       0.0568298
LJ          -4.70761        0.504837        -1.55375
LJ          -6.41941         3.99468         6.11208
LJ           1.48303        -5.00811         1.77983
LJ           2.60163        -5.64075        -1.94857
LJ           5.96612       -0.742469         1.77501
LJ           6.38135        -1.14068        -1.31999
LJ          -1.83729         0.23265        -3.86103
LJ          -3.11628       0.0966681        0.708364
LJ           5.42668        -3.23038         3.86126
LJ           1.76939         2.93936        0.505558
LJ          -2.17168         4.12399        0.856148
LJ           4.99854         3.22981         4.82459
LJ          -5.81411        -1.50967         1.36105
LJ           1.73871        -1.30315        -1.31571
LJ           5.33164         3.91693        -3.80105
LJ           2.32605        -4.23167          3.8698
LJ           6.34735         2.42005        0.606976
LJ           1.46115        -1.50963        -6.20941
LJ          -3.46153       -0.644806         3.71869
LJ          -3.52111         2.28991       -0.648265
LJ           1.20031         6.22874        -3.83865
LJ          -5.48839         3.44523         4.43114
LJ           1.11327        0.195221         5.06305
LJ           1.96867       -0.478074        -2.86304
LJ           3.46437        -1.57174         1.12198
LJ          0.404454        -5.02608        -3.99829
LJ           5.98437         -4.2426        -6.29597
LJ           5.51954         3.82814        -1.69952
LJ           2.64832          2.5678        0.159578
LJ           3.71622        -5.10582         4.01861
LJ          -2.80175         1.69435        -3.01188
LJ          -5.38051         1.97039        -2.93252
LJ           1.74102          2.2264         2.42126
LJ          -3.16867        -3.60121         1.39896
LJ           -6.1583         4.64051         6.07002
LJ           1.35554         2.56787         2.02108
LJ         -0.167962         3.96198        -2.14985
LJ         -0.936179        -1.97148         1.72138
