108
#Comment!
LJ          0.918623      -0.0954344        -3.19264
LJ           4.56175        -1.22373          2.1157
LJ           2.63454       -0.552059         1.17624
LJ           4.91968         3.32631          1.2275
LJ             -3.37        -4.84703          6.1656
LJ           3.58243         5.37662        0.461927
LJ          -2.44139        -1.11813         4.11087
LJ           4.67723        -1.86844        -3.77852
LJ          -1.00824          4.7075            1.59
LJ          -3.44005        0.441289        -5.88102
LJ          -4.04132       -0.718908        -5.25118
LJ           -3.6978         2.23364         -0.3901
LJ          0.801423         4.99959       -0.955674
LJ          -4.47139       -0.144915        0.634907
LJ           -2.5476        0.934292        -5.51217
LJ          -1.32965         -3.3727         2.04864
LJ          0.319127        -4.63577         6.07894
LJ            -1.084         3.48022         -4.6823
LJ          -3.33145        -2.70862         5.92843
LJ          -3.67155         2.54201        -5.18357
LJ            -2.044         1.29285         2.26352
LJ           4.16841         5.68805         1.79686
LJ          -6.20035        0.889862        -4.82572
LJ           1.18866        -4.83407         3.32035
LJ          -2.16372        -3.36075         0.41742
LJ           5.69915        -5.66492         -2.5204
LJ          -5.52551         4.71118        -1.96191
LJ          -5.82257        -1.21209        -4.34637
LJ           1.03787        -5.72116        0.753965
LJ           1.83551      -0.0518871         4.53755
LJ           1.73075         3.97852        -3.68735
LJ           3.86087           6.378     -0.00294174
LJ           5.79741        -1.94923         4.30907
LJ            3.2941        -2.55606        -1.03976
LJ           5.44463         5.25392         1.25733
LJ         -0.761239         -1.1035         6.39814
LJ           -2.6421          6.0619         4.57197
LJ          -4.37946       -0.385061         1.64666
LJ          -1.96266        -1.11873         5.83646
LJ          -5.97595         4.45142      -0.0716073
LJ           3.47381         -2.8298        -2.80404
LJ         -0.954854        -5.32904         4.43633
LJ          0.959519        -3.79578        -2.02001
LJ          -4.47999        0.433003         2.41693
LJ          -6.31519         5.53982        -6.00035
LJ           5.12212         1.46505        0.499477
LJ          -5.36944        -3.10645       -0.879095
LJ          -2.69947        0.486967         5.94341
LJ           1.32867        -1.02807         5.36616
LJ           5.74586        -1.03088        -1.76967
LJ          -1.51596        -3.72655       -0.242573
LJ          -1.95409        -4.81965        -3.65262
LJ          -2.24798         3.26003        -2.19362
LJ           3.21725         5.10354       -0.883662
LJ           2.98806         6.10833        -2.61532
LJ          -5.17309         4.80282         5.44124
LJ            2.7984         3.32748        -4.31901
LJ          -4.13294         5.45843        -1.61834
LJ           1.42919        -3.58276        -0.56148
LJ          -6.06797         5.41763        -1.00564
LJ         -0.372028        0.359824         5.02144
LJ          -3.19633         3.91638         3.33263
LJ          -5.23706         5.87899         5.66479
LJ           3.64409        -6.20611          1.4042
LJ           6.09506        -5.19155         2.91106
LJ           3.30749        -5.34801        -2.59299
LJ           3.60429        -2.04315        -2.20639
LJ           1.10268         2.37181        -2.91026
LJ           5.16448        -1.72975        -2.58688
LJ          0.871664         3.91807           3.409
LJ          -2.28973        0.433066         1.22201
LJ          -4.62704        -1.16158         3.68583
LJ          -6.26895        -2.76446        -1.34403
LJ           -0.6221        -4.02503        -5.74816
LJ          -3.83523        -1.92397        -3.84244
LJ           2.39877       -0.154051        -2.45673
LJ           5.90848         5.23853        -4.43632
LJ          -1.40741        -1.34879           4.995
LJ          -4.75482        -6.37124        -4.43057
LJ          -1.83914        -4.28366        -4.62065
LJ        -0.0469374       -0.988762        -3.46513
LJ           5.16609       -0.897523        -3.54433
LJ           3.21177        0.728712        -1.88208
LJ          -2.71893       -0.754537         5.28855
LJ         -0.554028         4.34255         5.79993
LJ          -3.45981       -0.443907       -0.475282
LJ          -2.02644       -0.137121         2.31464
LJ          -6.20541         2.25308         5.25866
LJ            4.4389        -0.64713         -1.7359
LJ          0.936608         4.71277        -2.10333
LJ          -4.73967         3.69343         4.42941
LJ           5.86366         0.21004        -2.80012
LJ          -2.40018         4.98033        -5.78451
LJ           2.14586         1.75913         2.02609
LJ          -3.47526        -5.77817        -4.84564
LJ           5.11223        -1.92327        -1.33149
LJ          -1.39825        -1.44235         3.74907
LJ          -0.16341        -3.82291         2.22346
LJ         -0.243228        -5.54761         6.41385
LJ           5.83787         4.71689        -1.21204
LJ          -3.27308        0.796801         1.45557
LJ           3.31667        0.347086        0.162435
LJ            4.1756         1.25554        -2.84732
LJ          -2.11892       -0.132982        0.236485
LJ          -5.76012          3.4188         1.00235
LJ           4.52309          2.6543         2.06815
LJ         -0.977445        -4.47535         -1.3646
LJ          -5.84298         1.28864        -5.94707
