108
#Comment!
LJ          -3.75775          4.0829        -2.50427
LJ         -0.429415        0.288195        -3.87667
LJ          -1.66347         4.96496        -6.10945
LJ           4.67218         3.22096         5.73248
LJ          -5.63781        -5.90106          -2.384
LJ          -3.15031        -5.74491        0.601575
LJ          -5.20996        -4.72377         4.13316
LJ          -4.92269        -3.73824        -5.66992
LJ          -5.18948        0.978815         3.99116
LJ          -5.49824        -3.58676        0.975623
LJ          0.593008        0.622462        -1.84942
LJ          -1.72821        -2.88347         5.62919
LJ          -0.53136        -2.75694         2.49808
LJ           -4.4837        -6.38488        -2.14124
LJ          -2.09699         1.60515        -4.52057
LJ          -5.39149        -5.98712         4.23028
LJ          -6.15753        0.746189         4.81735
LJ          0.398423         3.28359        -6.08202
LJ           6.14393        -4.00177        -3.33546
LJ           1.46337        -1.63254        -6.08844
LJ           2.14809       -0.852861        -3.56991
LJ           5.29685         5.44101        0.358224
LJ          -2.21037         1.91854         1.60857
LJ           5.68863         -6.1356        -2.61785
LJ          -4.58335        -2.17384       -0.309671
LJ           6.24358         6.23706         2.55853
LJ          -3.16556        -4.60768         5.69118
LJ           3.96378      0.00295685         0.78218
LJ           4.39342       -0.179817       -0.857775
LJ          0.960135        -4.57944       -0.751865
LJ           3.20366      -0.0380296         3.81047
LJ           -2.1237         3.73414         -4.8232
LJ           2.15801         5.07143         5.76524
LJ           1.30255         -2.1452          1.5691
LJ         -0.886863         2.26354         5.10653
LJ          -4.76631        -5.39454       -0.927852
LJ          -1.50608         1.39364        -4.28008
LJ          -4.17928        -1.69365        -3.35531
LJ          -2.50198         -6.3613         2.08788
LJ           1.37856        -3.16183         2.17087
LJ           -3.2734         5.25722        -3.98954
LJ           5.83465        -2.50021         5.25887
LJ          0.256864        -2.24213        -3.52708
LJ           6.07112       0.0502125         -5.1934
LJ           1.12942        -4.32195        0.669156
LJ          -5.49172         1.17297        -1.41431
LJ           3.02968        -3.30165         1.83226
LJ          -1.71404         1.73022       -0.345497
LJ          -2.89729       -0.878911         3.36349
LJ           2.21216        -1.94469       -0.140446
LJ           1.43448         3.52805        -2.87664
LJ           2.54827        -5.36724         5.80238
LJ           5.24077         1.54866         4.42081
LJ           3.28195         -2.6155         4.69285
LJ           5.03107         1.06233         2.46478
LJ           4.24232        -1.52232         6.27095
LJ           3.63957         1.35298         5.99527
LJ          0.791235         1.65949        -1.42266
LJ          -4.53002       -0.181006        0.206981
LJ           5.22374         1.36872        -3.28925
LJ          -4.51259         1.15707         -3.0633
LJ           5.39014        0.359589        -4.50584
LJ          -2.04763        0.688721        -5.56659
LJ         0.0335938        -6.14087        -3.63928
LJ           3.22046        -1.93143         -3.9418
LJ           3.19833         -2.8345         4.06246
LJ           3.05612        -1.04423        -2.25375
LJ          -2.98845       -0.591679        -6.39217
LJ          -3.72955       -0.554773         1.91736
LJ           5.93406         4.25874          3.9807
LJ           1.37779        -2.41528        -5.85396
LJ          -4.40934        -4.46209         -1.4021
LJ           2.47501         3.20865         2.83726
LJ         -0.351151         2.45149         1.71485
LJ          0.756821        -4.01477        -3.05252
LJ           6.24566        -4.94628       -0.895578
LJ           6.26018        -5.86621        -4.85023
LJ          -2.52224        -5.14114         3.55135
LJ            2.4823       -0.356445       -0.143862
LJ          0.680681         6.41042         4.57396
LJ          -6.35006         5.13356         3.03521
LJ           -3.1907         -2.6989         4.12455
LJ            1.7871        -5.80774        -6.44086
LJ           5.73341        -5.95941         1.03881
LJ          -2.11597         4.31696       -0.588192
LJ          -5.85839        -1.13426         1.72891
LJ          -3.62477          5.3486        -1.40785
LJ           1.22746         1.56748         -4.9069
LJ           5.74191        0.514437        -3.86913
LJ          -5.05189      -0.0332221        -2.26794
LJ          -1.30029        -5.78761        -3.67585
LJ          -5.20707        0.743536         6.14385
LJ         -0.863009         5.58405          2.7528
LJ           3.88951         3.21889        -5.26186
LJ           5.68931         1.86623        -3.69652
LJ          -5.09134         1.72078        -4.01916
LJ          0.275083        -2.04968         6.45836
LJ          0.923128        -4.57592         6.22739
LJ          0.957488        0.393803        -3.30673
LJ           4.65652          4.2654         3.82056
LJ           2.24319         1.54185         4.10464
LJ          -3.20727        -6.39929       -0.910118
LJ           0.71784          3.7762        -2.15999
LJ           5.85158       -0.714689         4.50196
LJ           1.38276         6.35787        -1.37094
LJ          -4.86001        0.169916         1.48462
LJ           3.39233         3.97327       -0.838624
LJ           6.37651     -0.00221276         5.83937
