108
#Comment!
LJ            2.0737         1.19764         3.01288
LJ           -4.2873        -1.13689        -4.03193
LJ           3.60437         5.26322         6.10602
LJ           5.54959       -0.502644         2.66796
LJ           3.55049        -3.29552        -5.26028
LJ           2.25798        -3.22083        -2.88995
LJ          -4.85283         1.69823         4.35476
LJ           4.24577       0.0258878         3.46352
LJ           4.66203         -1.3718        -0.17848
LJ          -3.06924       -0.451942          0.3663
LJ           1.06862         3.20199         4.19592
LJ          -2.52428         1.64231        -5.93356
LJ          -5.26237        -4.22942         0.11397
LJ          -2.34297        -0.26273        -2.20988
LJ            1.2281        0.173077         3.80204
LJ          -3.67993        -2.86767        -4.31948
LJ          -1.96781         2.00627         4.99802
LJ          0.376069        -4.64788        -0.17357
LJ           6.28277         4.95186        -6.16777
LJ           1.42148         2.15999        -5.58114
LJ           1.35075          2.6207      -0.0185709
LJ        -0.0591058        -5.36527        -1.08918
LJ          -4.25047         4.74269        -1.91295
LJ          -5.86011         1.80032         5.15935
LJ          -4.31385         3.35408          3.7262
LJ           2.14672        -6.41823        0.311017
LJ          -6.12023        -4.01296         2.68575
LJ           2.11256        0.815038         2.19973
LJ           1.64601         4.90429         3.92218
LJ         -0.358067        -3.48672        -2.32235
LJ          -1.00132         2.83951         -2.6686
LJ          -6.29608        -2.87971          1.1535
LJ          -4.13174         2.18513        0.917592
LJ           1.96923         3.54231         4.17765
LJ          0.700279        -3.99635          3.4774
LJ          -2.34206        -3.19731         6.43838
LJ         -0.819143        -4.09894         5.89195
LJ           2.22532         1.83961         3.98506
LJ           5.98457         4.49738         1.61238
LJ           1.16303         1.58906         6.40079
LJ           5.14499         1.00252        -2.62022
LJ          -3.09704         2.46353       -0.847728
LJ           4.45227        -4.84851         2.85284
LJ           4.56586        -3.56167         3.52984
LJ          0.742163        -3.33159         3.85465
LJ          0.964275        -3.36255        -5.48819
LJ          -2.76352         3.63035        -4.69452
LJ           1.87034         5.63326         1.95566
LJ          0.437126       -0.477304        -6.05913
LJ           5.43726        -0.77191          2.8588
LJ           1.61012         2.12548        -1.43211
LJ           1.47198         2.00371        0.833697
LJ          -4.62338         1.88961        -1.16397
LJ           -6.1753        0.155344         -1.5514
LJ           4.21583        -1.14371        -3.62037
LJ           2.84427         6.40798        -5.76819
LJ          -3.29041        -1.17845         3.01709
LJ          -2.29778        -2.97125        -3.56967
LJ          -5.52233         4.57965         1.20096
LJ          -1.53753        0.948302        -4.89817
LJ          -5.44935       -0.248843        -1.77421
LJ         -0.563649         4.33224        -1.62812
LJ           5.92107        -2.27721          3.9677
LJ          -2.48072        -6.34398         2.91724
LJ         -0.992367         2.17153         4.95189
LJ            3.7723          1.4591        -2.70205
LJ           6.22295        -3.52704        -6.17266
LJ          -1.08253          3.5324        -6.05694
LJ           1.61167        -1.97772        -2.98598
LJ          -1.07544        -3.78661        -4.34889
LJ         -0.960578         2.64679        -2.83084
LJ        -0.0892335        -2.09642        -3.04062
LJ           4.96715         5.76078        -1.30836
LJ          -6.26271        -6.44126         2.24774
LJ          -1.19207         4.12887        -5.76792
LJ           5.46531        0.081813         2.37057
LJ           5.25265         5.33193         6.01383
LJ          -5.01203        -2.72165         4.88789
LJ           2.41682       -0.507796         3.60898
LJ           -3.5111        -3.41952        -4.84161
LJ          -4.54859        -3.24016        -3.74758
LJ          -3.66571        -2.57711        -1.29138
LJ           3.10601        -5.40306        0.373757
LJ         -0.860141        -2.41791         1.24489
LJ           4.87611         6.34513         2.40402
LJ          -6.35642         2.19208        -3.69812
LJ          -2.84178         5.03159       -0.749822
LJ         -0.224678        -2.79582        -3.22548
LJ           4.25869         3.33249         6.02913
LJ          -2.44006         -3.7798         2.60315
LJ          -4.27445       -0.652141       0.0995917
LJ           5.68615         0.93816         6.12401
LJ         -0.746073        -4.07505        -1.88882
LJ          -4.38763        -0.60774         5.68353
LJ           4.58577       -0.377547        -2.28791
LJ           5.81988        -4.49063         5.68875
LJ           4.12227         2.52171        -3.28723
LJ          -1.43787        -5.22775         5.04414
LJ          -3.41561         1.75387        -0.25014
LJ          -4.53947         3.70594       -0.856028
LJ          -5.51895        -3.95867        -5.75138
LJ           5.81436        -2.80693         6.34088
LJ          -3.98087        -2.19209        -2.65019
LJ            1.1429        -2.90946         1.18486
LJ          -1.04633         4.47813         3.20515
LJ          -2.38657       -0.211927        -6.34039
LJ           6.06637        -4.02784        -2.03189
LJ          -1.19238         -3.4066         2.06271
