108
#Comment!
LJ         -0.315678        -3.42393         3.68458
LJ           3.95475         4.77855         2.41859
LJ           3.76299         -4.3115         3.49254
LJ           4.11957        0.482596         1.94429
LJ           -1.9684         6.12419         5.55551
LJ           5.42322         2.38441         -5.6589
LJ          -1.74944        0.662357         4.23214
LJ          -4.42168         -4.7418       0.0596289
LJ          -5.03871         4.09048         5.04468
LJ           3.13525         4.05734         -2.7411
LJ          -3.28841        0.976982          5.8581
LJ          -3.81132         5.19362        -6.43088
LJ          -1.26732         5.45906         5.23507
LJ           3.40351          4.6479        -5.70385
LJ            6.0051        -4.90274        -6.32219
LJ           4.85109        -1.93498        -0.87025
LJ           1.62172        -3.10809        -6.39483
LJ          -2.60602        -5.45374        -2.16564
LJ           5.17651         0.24803         -1.5787
LJ           5.18235        -2.34869         6.07488
LJ           2.89927        -2.86057        -5.30082
LJ          -5.13372         4.17435        -1.55393
LJ           4.30675        -5.99244         1.12055
LJ         -0.849767         1.99018         2.16049
LJ          -1.17303        -1.20632        0.297211
LJ           2.83975         4.14399        -6.43921
LJ         -0.682676        -1.62746        -2.58456
LJ          -5.58823       -0.186911        0.218119
LJ           4.28466         2.33409         3.25465
LJ         -0.515992        -3.27681         2.69088
LJ          -2.61521        -6.38579        -2.44879
LJ           4.08277         1.35163        -4.26404
LJ          -1.92287         6.42731         2.43818
LJ          -3.42501       -0.534522        -2.25616
LJ          -2.32224        -2.55578       -0.549142
LJ           5.65916        -5.56726         2.91168
LJ         -0.489627        -0.73883        -4.42046
LJ           6.11406        -2.40601         3.40206
LJ          -1.58453        -1.87424          1.4412
LJ           -3.2419         6.33951         5.03972
LJ           2.53571         4.63022         2.93919
LJ           1.00995         4.49691        -5.05805
LJ          -3.50039        -5.88097       -0.503641
LJ            -5.046         3.53431         2.64563
LJ         -0.470681         3.54788       -0.779124
LJ          -2.03329         3.38351         6.07386
LJ           -1.1099         1.45189         5.65258
LJ          -6.33625        -6.35343         1.65136
LJ           1.41109        -2.99464        0.720889
LJ          -3.29856          2.7281         3.36381
LJ           0.63356        -3.22258        -5.88268
LJ          -4.33184        -5.74862         5.38717
LJ          -4.06786          3.2565         6.33785
LJ          -6.25177         3.51367         2.19268
LJ           6.41369        -3.53988         2.66681
LJ           2.17304          5.3134       -0.329136
LJ          -5.74409        0.755958         6.21576
LJ          -1.90528         6.05227         1.02057
LJ            5.9986         -3.7236         -5.3689
LJ           4.08744        -2.63292         4.93051
LJ           3.47531         5.14972        -1.68647
LJ          -4.73114        -1.17131        -2.77005
LJ          -1.55413         1.93624         -2.9093
LJ           4.01991         5.59237         3.89071
LJ          -5.27271         4.51699         -3.4285
LJ          -2.80856        -5.76132        -3.60332
LJ         -0.846835         6.26679        -3.98344
LJ         -0.845437         4.34684        -1.93843
LJ          -6.41129       -0.318595        -5.19595
LJ           3.51238          2.2212        -3.77093
LJ          -1.02295        0.772985         5.99872
LJ            4.9545        -4.48155       -0.971658
LJ          -4.69343         -5.0237         4.25125
LJ           4.59084         4.64335      -0.0987985
LJ           -4.6893        -3.45584         5.12443
LJ           5.05687        -5.27005        0.911177
LJ          -5.32302        -5.90792        -3.96925
LJ           6.22777         3.00679        -1.34183
LJ           3.21822        -4.67452        -3.93728
LJ          -1.53661         1.27743       -0.269247
LJ           4.58569         1.66847         -2.5584
LJ           5.66534       -0.776945        -4.14916
LJ           -5.4772         2.77439       -0.906771
LJ          -3.12419         3.43153        -6.26085
LJ          -5.96115          1.5128       -0.596897
LJ           2.43677        -1.73421        0.629868
LJ          -5.86138        -3.86171        -1.96013
LJ           6.19686         2.99624        -3.53478
LJ           2.62973        -4.13398        0.305013
LJ           6.31325        -4.53007        -5.26551
LJ          -2.95194       -0.794699         1.54981
LJ           1.12891       -0.412137         1.10847
LJ          -5.61852         -1.8805         1.50222
LJ          -2.99295        -3.03133         4.62302
LJ           -2.2564         4.51896          4.5209
LJ           4.69629        0.691041        -4.59756
LJ         -0.564066       -0.978583         -5.7293
LJ         -0.266507        -1.73855          6.0386
LJ           1.45225         5.72924         2.29516
LJ           2.59906        -1.33637        -5.09917
LJ          -2.89284         5.28415         4.84008
LJ           3.96174         2.88082        -3.99247
LJ        -0.0392082         3.82464        -2.76908
LJ          -1.72916        0.872622          2.4741
LJ          -1.55986        -1.54565        -4.03035
LJ          -5.33095        -5.16412        -1.94259
LJ           3.79652        -5.60831         1.42414
LJ          -1.32357        -2.75879        -4.01245
