108
#Comment!
LJ          -6.46133        -1.80704         6.24767
LJ          -6.44174        -3.00613         4.43709
LJ          -5.92739        -5.50549        -3.57991
LJ         -0.878257        -1.56655           4.364
LJ            5.8158         3.97296         6.38736
LJ          -5.31661         2.52876        -1.18433
LJ         -0.355784         4.91057          3.4655
LJ           -1.5623        -5.02731         2.89629
LJ           1.91642         3.43558        0.799635
LJ          -1.61206        -3.98939         1.72291
LJ           5.12535         1.04409        -2.41421
LJ          -2.75495        -4.93434          -5.808
LJ           2.06696        -2.04545        0.889513
LJ          0.681725         5.37714        0.801854
LJ          -5.47058         4.31197        -2.14851
LJ           1.15614         6.40065        -3.52742
LJ           2.29951       -0.103536        -1.91975
LJ           3.66857        -6.42125        -4.62042
LJ         -0.407692        -3.10265       -0.024026
LJ         -0.580647        -1.36942       -0.909681
LJ          -4.85601        -4.08428         4.42805
LJ           4.53319        -3.87838          2.6786
LJ          -1.17504        -2.10944         4.07823
LJ          -0.96075        -4.92931        -1.10041
LJ           0.98726        -3.23867        -1.94748
LJ          0.164121         -3.9193        -4.71967
LJ           4.83898        -1.53543        0.829594
LJ          0.356482         4.29499        -3.15339
LJ           2.22824        -3.55251         5.01155
LJ          0.225045        -1.99698          1.3107
LJ          -3.05162         3.46991        -5.43936
LJ           2.71004        -5.02018          5.0384
LJ           1.61753        -4.70858        -4.19562
LJ          -3.94939         1.33821        -3.75864
LJ           5.60436         2.50958         5.57335
LJ          -5.70381         4.30391        -3.25685
LJ           4.84671        -5.73033        -5.18611
LJ          0.915399        0.472424         5.12638
LJ          0.516664        -3.18947         2.22592
LJ          -4.38645         1.26404        -3.06072
LJ           1.91826        -2.87539         4.98498
LJ          -3.24485         6.14713        -2.76939
LJ           -1.9205        -6.09094        -5.09269
LJ           1.71071        -4.55325        -2.93333
LJ           0.90725        -3.02822        -5.19288
LJ          -2.20906        0.696985         4.61382
LJ          -1.47938         2.46793         3.37693
LJ           4.03771        0.592041        -4.84768
LJ          -0.70354         3.96969          2.3616
LJ        -0.0955935         1.77452         5.66712
LJ         -0.539992        -3.50637       -0.803255
LJ          0.228742         5.29866        -4.22395
LJ          0.358731        -2.27372         2.82081
LJ           3.95651         5.88529       -0.434562
LJ         -0.860286         0.77548        0.836162
LJ           2.41928         3.52478        -1.35325
LJ          -2.40439        -1.83418        -2.30494
LJ           1.32425         2.77419         1.71202
LJ            4.0516        0.402893        -2.77684
LJ         -0.796273          5.6609        -5.85143
LJ          -2.20874       -0.756182         5.75137
LJ           5.88775         5.14239         3.29554
LJ           5.66772       -0.221329        -1.76651
LJ           3.83043         2.80859        -4.53833
LJ           5.55182       -0.710018         -3.2041
LJ            4.8065         2.01999        -4.20372
LJ           -3.4166       -0.863276       -0.707194
LJ           5.90487         3.69379        -6.24265
LJ          -4.08029         4.04837        -4.39054
LJ           1.93533        0.713966         1.38383
LJ           5.66533        -5.47644         5.20014
LJ          -2.34283       -0.425121         2.52231
LJ         -0.564112         4.36824         2.27197
LJ          0.700672        -1.96305         4.08715
LJ          -3.81795        0.560652         2.50482
LJ          -2.41537         -4.6271         3.34505
LJ          -5.28331        -5.14492        -2.26198
LJ          -5.87889        -1.58318         5.57467
LJ          -4.68008         4.36787        -4.70936
LJ           2.19774       0.0577213        -2.76422
LJ            1.3664         5.70426        -3.52842
LJ         -0.355473         4.42629        0.605188
LJ          -3.81567         1.59453        -2.47477
LJ          -6.10214         -6.1039       0.0579417
LJ          -1.73079        -1.10156         5.66354
LJ          -5.69621         4.12556        -5.78002
LJ           2.80923        -4.89267        -5.90649
LJ            5.1504        -1.40617        -4.28654
LJ           6.38129         -3.4611        -5.29049
LJ           3.89281         3.26675         1.58888
LJ           4.43902         -3.2563        -3.67455
LJ          -1.58197        -3.40626       -0.793102
LJ          -6.01512         4.34896        -6.26922
LJ          -3.07305         2.46377         5.80573
LJ          -5.92712        -0.89861         4.04568
LJ           -3.7987        -5.69034       -0.480066
LJ          -2.90495        -1.21063         1.03343
LJ           6.17912         3.28946        -3.82322
LJ           2.99798         5.11065         4.41162
LJ          -5.11893        -1.47806        -3.40279
LJ           6.10241        -1.12556        -5.43254
LJ           1.18526         5.86949         1.73878
LJ           2.28341         -6.1402        -3.91867
LJ          -6.20927        0.448787         2.77266
LJ            5.8761         5.68436        -1.51664
LJ           4.77407        -5.80294        -4.93704
LJ          -4.77922        -1.11281         6.44538
LJ            2.2697        -1.12455        -1.52646
