108
#Comment!
LJ          -3.92833       -0.517208        0.669822
LJ          0.792223         2.68658         1.31241
LJ           3.73125        -6.38664        -5.84778
LJ           6.34438         1.62936         4.37831
LJ           2.01621         -2.8338        -4.40707
LJ           2.00903         -5.4462        -6.21731
LJ           -1.0929        -5.81003         2.97531
LJ          -1.77724        -5.44235           5.987
LJ          -6.22338       -0.547259        -4.15511
LJ           4.31607        -2.54282         5.67405
LJ           4.26561        0.541658        -3.45332
LJ         -0.706371        0.541989        -1.81069
LJ           3.09154        -1.50242         1.53812
LJ          -4.97614        -1.26546        -4.18532
LJ         -0.881084        -1.91403       -0.703773
LJ          -6.19672        -3.15244        -5.07376
LJ           2.70795        -1.86311        -3.28451
LJ          -4.72582        -3.30997         5.63651
LJ          -4.71377         3.49407       -0.196817
LJ          -1.72177        0.144809        -3.70602
LJ          -6.09431        -2.83102        -1.04759
LJ          -5.30121       -0.806565         1.56525
LJ           1.29427         4.57539        -2.87722
LJ           1.20032         -4.2305        -3.23704
LJ          -4.91101        -3.13569        0.604176
LJ           -5.4076         3.02599        -3.82737
LJ          -4.62911          5.7389         2.37572
LJ           1.81018       -0.806706        -2.39892
LJ           2.30266         5.88885         2.50496
LJ           4.99084         2.04869        -5.10724
LJ          -2.23238         4.30959        0.288967
LJ          -2.37861        -4.87889       -0.821083
LJ            4.7767        -4.70683        -5.99292
LJ            5.9376         3.86208        -5.32389
LJ           4.11149        -3.22836         5.33397
LJ         -0.507904        -2.99047         3.11259
LJ           1.72075        -2.02765         2.05269
LJ           2.50432       0.0165536         -1.9379
LJ           -2.9846        -5.52125         1.97728
LJ           3.09457        -1.19384        -4.84717
LJ          -2.70022        -1.94125         6.05306
LJ          -2.01363         2.31491        -3.44682
LJ           4.22345        -1.48285          4.9669
LJ         -0.775381      -0.0727071       -0.174643
LJ           2.72554        0.851503        -2.71214
LJ           2.84026        -5.09346         2.12733
LJ           5.72538        -3.42984        -6.25614
LJ          -4.79786         1.06846         1.30856
LJ          0.580483       -0.962954        -2.62742
LJ            3.4655       -0.261461        -4.46598
LJ          -6.33957        -6.08766        0.213333
LJ          -1.65726        0.960937         3.57501
LJ         -0.296344         4.56613         6.24149
LJ           3.31316        -5.48799          -5.651
LJ          -4.38178        -3.26654         5.99069
LJ          -3.87281         6.17239         3.98209
LJ          0.312343         2.39108         3.54862
LJ         -0.960264        -2.18916         3.17716
LJ            3.8745          -4.436         3.14071
LJ           -2.5217        0.726482         4.86549
LJ         -0.739056         6.40623        -6.13007
LJ           4.55813            -1.1         6.34328
LJ           1.57852        0.296695        -2.14985
LJ          0.808627         5.10562         3.23374
LJ          -5.33375        -3.60544         1.22985
LJ          -4.26603       0.0355641        -3.94027
LJ           6.27141        -2.67407         6.23384
LJ           3.91766         3.07065         6.01701
LJ          -2.59899         1.48591        -1.45561
LJ          0.765366         1.04633        -1.89015
LJ         -0.569347        -5.68448         4.07663
LJ         -0.770788         3.64664         4.95337
LJ           3.24887        -0.83486         4.50889
LJ           2.63978         4.33309         5.16672
LJ           4.69913         1.43115         2.15762
LJ           1.64999        -3.43117        -5.79532
LJ           3.21019        -5.13538        -1.03325
LJ          -5.60868        -1.31145        -1.42516
LJ          -2.30845         1.92354        -1.52756
LJ            1.4495         2.34534         3.48728
LJ           1.21289          4.3489         2.39834
LJ           3.72016        -4.47553        -0.41304
LJ          -1.38907         5.92585        0.628047
LJ          -2.33462          3.1628         2.64638
LJ          -2.00031        -2.73575         5.25855
LJ           1.93605        -3.01122         3.83718
LJ           4.18211       -0.474906        -4.52336
LJ          -5.64946         0.82061         5.62933
LJ          -3.66717       0.0600566         4.02312
LJ           2.09821         4.05444           1.015
LJ          0.522239         -3.5551         6.18888
LJ           4.36715        -4.40076       -0.837543
LJ           2.00881         4.91646          3.3034
LJ          -2.42845        -2.47066        -3.38039
LJ            5.7795         3.74104         6.13438
LJ          -5.75146         4.05601         3.97562
LJ          -4.19123        -2.85092        0.454592
LJ          0.297503         3.63073         5.71677
LJ           4.61265        -5.89227         4.97068
LJ           3.90035        -0.69445        0.393167
LJ         -0.306808         5.17855         6.27625
LJ           5.46776        -6.03536         1.10349
LJ           4.39096        -0.13971         4.01665
LJ           4.82329        -1.02694         4.45471
LJ          -3.34152        -2.89226        -2.49208
LJ          0.540092         3.37225        -1.55374
LJ          -4.31614        -1.45314         5.88441
LJ          -1.19879         2.76048        -1.87298
