108
#Comment!
LJ          0.811558      -0.0792363        -3.10233
LJ           4.44979         -1.2084         2.60608
LJ           2.93187       -0.338596         1.03221
LJ            4.8604         3.01075        0.932671
LJ          -3.61036        -5.08121         -6.3367
LJ           3.64099         4.79852        0.477864
LJ          -2.48417       -0.969708         4.09491
LJ           4.55239          -1.935        -4.04741
LJ          -1.49805           4.069         1.74813
LJ          -3.53266        0.289781        -6.11488
LJ          -3.54793       -0.537296        -5.11787
LJ          -3.60789         2.62285      -0.0773865
LJ          0.841885         5.46959       -0.766406
LJ          -4.43975       -0.816572        0.217637
LJ          -2.31233         1.22642        -5.39824
LJ          -1.35651        -2.99696         2.36569
LJ        0.00102278        -4.32105         6.09832
LJ         -0.991458         4.01629        -4.82872
LJ          -3.04428        -2.79833         6.24614
LJ          -3.78474         3.25378        -5.47926
LJ          -2.18104         1.33821         1.97618
LJ           3.93994         5.63631         1.64895
LJ          -6.39262         0.96432        -5.18931
LJ           1.14594        -4.65216         3.20927
LJ          -2.42852        -2.91351        0.360208
LJ           5.80418        -6.02984        -2.13473
LJ          -5.67339         5.12768        -1.59292
LJ          -5.62459        -1.07576         -4.5839
LJ          0.944317        -6.17825        0.900341
LJ           1.68653      -0.0989094         4.25122
LJ           1.67106         3.97597        -3.84019
LJ           3.75606         6.44036        0.103749
LJ           5.68672        -1.55625         4.40062
LJ           3.30312        -2.72757        -1.34608
LJ           5.52571         5.24556         1.44404
LJ         -0.831089        -1.19008         -6.0377
LJ          -3.20678         6.18706         4.82494
LJ          -4.40711       -0.364079         1.61889
LJ          -1.58924        -1.00084         5.90417
LJ          -5.91079         4.42724        -0.20975
LJ           4.16338        -2.90579         -2.6901
LJ         -0.357503        -5.08319         4.22597
LJ          0.915319        -3.46323        -1.53026
LJ          -3.98616        0.347529         2.47137
LJ            6.0503         4.98383        -6.38934
LJ           5.27181         1.03562      -0.0299686
LJ          -5.19862        -3.18487        -1.33236
LJ          -2.93513        0.101929           5.979
LJ           1.79489        -1.17122         5.34202
LJ           5.48062       -0.401216        -1.51725
LJ            -1.553        -3.81262       -0.354264
LJ          -2.11679        -5.22558        -3.63546
LJ          -2.60257         3.89661         -2.3084
LJ           3.27934         4.95212        -0.68201
LJ           2.71522         5.94969        -2.39348
LJ          -4.56858         4.91148         5.53069
LJ           3.23768         3.26374        -4.11851
LJ          -4.37204         5.30409         -1.7674
LJ           1.77876        -3.94499       -0.638004
LJ          -5.35502          5.9193       -0.902914
LJ         -0.784575        0.393173         5.39346
LJ          -3.01586         3.88166         2.91298
LJ          -5.11688         6.07705           5.689
LJ           3.89413        -6.18295         1.15296
LJ           6.02985        -5.70428         2.61938
LJ           3.23584         -5.6697        -2.28689
LJ           3.36446        -1.63986        -1.72579
LJ           1.23791         2.55616        -3.36196
LJ           5.36197        -1.89079        -2.47949
LJ           1.21802         3.81689         3.20102
LJ          -1.85838        0.630421         1.26389
LJ          -4.36986        -1.25226          3.2405
LJ          -6.37774        -3.04982        -1.68411
LJ          -1.09023        -3.79528        -6.02531
LJ          -4.08536        -2.29718        -3.84577
LJ           2.32423       -0.692843        -1.88672
LJ           5.44874         4.43891        -5.11897
LJ          -1.74643        -1.43061          4.6158
LJ          -5.06132        -6.42572        -4.31153
LJ          -2.06646        -4.28997        -4.85222
LJ          0.271789       -0.746436        -3.82816
LJ           4.80078       -0.961623        -3.44023
LJ           3.24153       0.0515774        -1.61028
LJ          -2.53246       -0.847744         5.28939
LJ         -0.124393         4.51324         6.06852
LJ          -3.43832       -0.390456       -0.312215
LJ          -1.86078        0.352228         2.27811
LJ          -5.86396         2.75851         5.63056
LJ           4.48865       -0.748489        -1.65665
LJ           1.30762         4.95192        -1.88608
LJ          -4.92681         3.82988         4.36064
LJ           5.99452        0.155282        -2.78591
LJ          -3.13855         4.97839        -5.45066
LJ           2.06924         1.70392         1.66701
LJ          -3.69439        -5.79535        -4.50982
LJ           5.04709        -2.15873        -1.51651
LJ          -1.61568        -1.65454         3.59008
LJ         -0.373876        -4.21171         2.78173
LJ         -0.338503        -5.28476        -6.10549
LJ           6.35817         4.89168        -1.34796
LJ          -2.98464         0.76954         1.49023
LJ           3.04416         0.40112       0.0357177
LJ           4.04913         1.17268         -3.1513
LJ          -1.80731       0.0407672        0.305792
LJ          -5.85709         3.24502         1.17671
LJ           4.50356         2.97905         2.07324
LJ          -1.48938        -4.11508        -1.32718
LJ          -5.80215         1.33369        -6.16385
