108
#Comment!
LJ           5.36222         4.53417        -1.86061
LJ           4.53744        -2.30409         4.70476
LJ          -2.63155        0.511251        -3.00618
LJ          -6.12622         5.73253        -4.53582
LJ          -4.45877          4.8554         5.11254
LJ          -3.24001        -1.13504         3.45757
LJ          -3.11155         -4.9595        -2.15921
LJ          -1.56403        -3.62158         6.07788
LJ             1.815          1.6805         6.35681
LJ           2.80506        -4.29515         4.44316
LJ           1.58774        -3.25004        0.117078
LJ          -2.99213        -2.78834         1.31376
LJ         -0.318396         2.16988        -1.44116
LJ          -4.68294        -1.09431          1.1176
LJ          -4.87386        -3.49383        -6.46142
LJ          -5.43397        0.760913        -5.68016
LJ            6.2169        -2.74939         3.04606
LJ          -3.97395         2.22768         1.02157
LJ         -0.210993        -2.12527        -3.50263
LJ          -4.39995        -5.55121        -2.92216
LJ           5.94126         4.12122        -2.00514
LJ          -1.83754          3.2133        -6.40518
LJ           3.23885        -3.88134        0.853562
LJ          -1.04847         4.65807         3.86018
LJ           6.26458          4.5399         -2.7108
LJ          0.185895        -5.65075         4.17946
LJ          -3.52957        -4.25314        -4.55552
LJ           1.18894          4.3602        -5.61053
LJ          -5.07226        0.530527       -0.175794
LJ          -4.55965        -0.61292        -1.75214
LJ          -4.28137         0.16745        0.868557
LJ           6.24662         1.92788         6.31244
LJ          -6.23026        -5.46086         0.97905
LJ           2.48036       -0.202748        -6.29138
LJ          -3.07661         4.73051         2.02846
LJ          -5.47812         1.59193         3.66197
LJ           3.04461         6.32694         6.36917
LJ          -3.77878         3.17481       -0.571846
LJ           4.20948        0.210014        -5.25443
LJ           0.85636        0.454778       -0.180137
LJ          -4.56215         4.96332        0.435003
LJ           1.69186         3.93475        -2.78068
LJ          -1.99012        -3.01179         1.69446
LJ          -3.00414        -2.33475         5.55686
LJ           4.64614        -2.79447        -6.34501
LJ           1.27781        -2.11045       -0.725771
LJ           1.64563         2.77736         1.58006
LJ          -1.06097        -4.51506       -0.121697
LJ           5.37573         4.99584        -5.66471
LJ          -4.97243          1.2032       -0.520299
LJ          -4.68646        -3.55883        -1.99222
LJ           1.15272        -4.42954        -1.16618
LJ          -2.63063        -2.08196         4.02898
LJ          -3.81175        -4.21716        -4.64465
LJ           5.57315         4.46175        0.895045
LJ           5.72119        -2.14736      -0.0452647
LJ           3.09403        -2.62159         5.78938
LJ          -6.01644        -3.87529        -1.27931
LJ           3.26041         3.08259        -5.87799
LJ           1.31861        -1.62878        -4.36528
LJ          -6.18445         2.50063         5.04327
LJ         -0.911648         5.80349       -0.285992
LJ          -2.83433         2.43777        -5.03641
LJ           2.69725         3.13423        -4.84995
LJ          -2.84087         1.92846        -2.60316
LJ           3.64184         -1.6327         -5.3607
LJ          -6.07813         2.30788         3.72465
LJ          -4.25112         4.63235         4.32331
LJ          -5.14542          1.6642         4.63045
LJ          -3.93201       -0.393513         3.32105
LJ          0.987564        0.124663          6.4175
LJ           6.01215         2.77808         5.84089
LJ          0.287458        -1.29979         1.80699
LJ            4.3513        -4.83317        0.786283
LJ          -2.87247        -3.97897         1.56509
LJ           1.29607         2.27103         3.18552
LJ          -1.81528         3.90184        -4.06092
LJ         -0.162147         3.91981         6.38384
LJ           5.67814          1.6449        -5.31939
LJ         -0.868724        -6.24981        -5.83481
LJ           4.26428        -1.57152        -4.68371
LJ          -0.69637       -0.878295        -4.96143
LJ          -2.00309        -3.15681       -0.288352
LJ          -5.99484        -3.42362        -5.39072
LJ           2.71833         4.57975        0.832921
LJ           4.82488         -5.6699         5.65207
LJ           5.23519        -1.81155         2.19189
LJ         0.0589949        -2.92053         2.96825
LJ           3.02691         5.68308        -2.74227
LJ          -5.49444         6.37503        -4.28067
LJ         0.0728194        -1.22012         5.98179
LJ          0.652675        -4.51305        -3.27171
LJ           2.13369        -1.24968         3.93616
LJ          -1.42562        -3.09329         1.43512
LJ           5.19114        -4.43362        -5.80692
LJ           3.81373        -6.01488         1.94339
LJ          -4.44822         0.59592         3.69733
LJ           6.44735        -4.62541        -4.33815
LJ          -6.19237       -0.350259        -1.59795
LJ          -2.35028        -5.99042        -2.60007
LJ          -4.66208         5.78678         3.56884
LJ           1.45958         1.19903        -5.49936
LJ           5.64205       -0.579896          4.7602
LJ          0.285024        0.521827        -5.85339
LJ           4.38044        -6.03998         2.09898
LJ           5.04093         5.40747          5.5601
LJ          -4.59588        -4.66263         2.57451
LJ          -0.10172        -1.58418        -2.44512
