108
#Comment!
LJ          -5.36712        -5.10712        -3.56028
LJ          -2.70894       -0.376941        -3.67583
LJ          -3.30649        -1.80288        -1.92557
LJ         0.0709925        -5.26519       -0.100648
LJ         -0.108386        -2.89855        -3.09261
LJ           2.35334        -3.62447        -6.05498
LJ          -1.81994        -2.54071       -0.452749
LJ         -0.266393        -1.68776        -2.82169
LJ           4.40119        -2.57318        -4.57595
LJ          0.835082        -2.07462        -2.49698
LJ           2.21464        -5.07738        -4.74975
LJ           2.42826        -3.93883        -1.48222
LJ          -3.91676       -0.498834       -0.825679
LJ          -1.98522        0.791821        -3.76307
LJ           -2.3385         1.18583         -1.6216
LJ          -3.30495        -4.30646       -0.988074
LJ          0.492519        -1.01427        -2.90223
LJ        -0.0989871        -1.31871        -4.00816
LJ         -0.773165       -0.739473         -1.6835
LJ           1.06271        -1.16437        -2.09267
LJ           1.27885        -1.99226        -3.56402
LJ           1.80498       -0.256872        -3.68975
LJ           2.57136        0.997391        -0.35003
LJ           4.47481       -0.545441       -0.222509
LJ          -4.03644        0.754568        -4.86523
LJ          -4.67402         1.10572        -3.58793
LJ          -3.34173        0.866355        -3.80084
LJ         -0.730076        0.944641        -3.75523
LJ          -4.10232         1.32201        -6.09486
LJ          -3.59434         1.91699         -5.2734
LJ          -2.17929         1.99968        -2.98982
LJ          0.486117      0.00639245        -3.09153
LJ           1.55128       -0.209153         -2.1118
LJ          0.257172         1.92202         -3.9148
LJ         -0.236859         3.52027        -2.13608
LJ             2.631         1.04623         -2.2928
LJ          -1.71692        -5.79355        0.978007
LJ          -0.86102        -2.58057        -1.83281
LJ          -2.79346        -5.81955        0.567041
LJ          -1.76367        0.219462       -0.107242
LJ           1.01488        -2.94397       -0.616416
LJ          -1.69576        -0.89944         -3.4194
LJ            -3.699        -1.96576        0.397849
LJ         -0.223961        -2.42379       -0.184998
LJ          0.384079         -1.8055        -1.50061
LJ           5.24152       -0.269837         0.60367
LJ           2.15246        -1.25204        -1.40186
LJ         -0.601982        -2.92479         1.20418
LJ          -4.27375        -1.21338        -2.75201
LJ          -2.48094        0.533105        -0.85852
LJ          -5.58454         1.52632        0.904232
LJ          -5.51268       -0.281335         1.04369
LJ           1.01091        -4.56773        -4.19399
LJ          -1.38601         2.31489       -0.804259
LJ         -0.941693         0.75876       -0.827924
LJ          0.252166        -1.24548         1.69756
LJ          -6.07678          -2.137        0.946165
LJ           3.62339        0.785253        -1.90406
LJ          -1.34626        -1.46856       -0.757937
LJ         -0.989597       -0.438684       -0.297776
LJ          -3.81029         3.29674         1.31699
LJ          -1.95642         3.00335        -2.54551
LJ           6.39157         4.79673       -0.410146
LJ          -3.11067      -0.0210979       -0.212638
LJ          -2.61643        0.734598        0.389268
LJ         -0.109658         3.68358       -0.256834
LJ          -1.12496         3.90144       -0.532864
LJ          0.640072         1.84352        0.217214
LJ          0.759774       0.0101737        0.132768
LJ          0.139955         5.01877        0.834969
LJ          0.366487        0.762647         1.77138
LJ           1.55658         4.36951       -0.463972
LJ          -1.55846         -1.5557        0.758754
LJ          -1.99738        -1.31465         1.82857
LJ          -2.89711        0.406135         3.55474
LJ          -3.35189         -4.0855        0.790689
LJ           1.98679        -5.00458         4.18517
LJ          -1.68163        -3.31278        0.888629
LJ          0.441555        -1.63416         4.06154
LJ          0.814865        -2.73833         1.34212
LJ          0.742496        -5.71073          2.1876
LJ           3.33951         -1.6814        -1.02758
LJ           1.62233        -2.98313         0.40755
LJ           1.68683        -3.87005         1.58414
LJ          -3.53283        -3.29006        0.226776
LJ          -4.22159        0.754941       -0.124355
LJ          -1.35226         1.08972        0.648105
LJ          -2.56087        -1.02798        0.390291
LJ           -3.8486       0.0249523        0.617368
LJ         -0.649629       -0.912377         2.82545
LJ          -2.16212        -1.43231         2.94787
LJ           2.57963        -1.09461         5.62221
LJ          0.993858        -1.59649      -0.0465443
LJ           2.89082         1.90495       -0.960496
LJ           2.75512         2.35273          2.0448
LJ            1.8172       -0.174593         -0.2143
LJ          -3.58183         1.14263        0.608389
LJ          -2.59476         1.73836        0.372437
LJ          -1.34111       -0.520671         5.07821
LJ          -1.86896         1.14007       -0.372691
LJ         -0.482879        0.206531        0.998071
LJ          0.833234         3.79361        0.567709
LJ         -0.133723         1.20081         3.43108
LJ         -0.181945        0.197703          2.8845
LJ           2.97568         1.25728         1.04433
LJ           2.64283        0.307117           1.696
LJ           1.39742        0.683016         5.37182
LJ           3.42788        0.696606         3.10299
