108
#Comment!
LJ           1.10859        0.752644        -2.11941
LJ           4.71732       -0.840244          4.8479
LJ           4.34029         1.04724        0.145233
LJ           4.28937         2.27977       0.0135635
LJ          -4.82903         6.36293        -4.17639
LJ           4.41732         2.65147         1.06126
LJ          -2.81446       -0.287036         3.60489
LJ           4.00332        -1.67558        -3.74307
LJ          -3.13956         3.36609          2.5624
LJ          -3.66951        -1.27406        -5.52574
LJ          -1.53197         1.25512        -5.38496
LJ          -3.48585         4.19985         0.59374
LJ           1.65163        -5.57933        -0.53317
LJ          -2.94302        -3.29182        -1.47724
LJ          -1.45457         2.23063        -5.05132
LJ         -0.728733         -2.0472         3.71911
LJ          -1.61682        -2.44022        -6.08705
LJ         -0.457942        -6.22852        -5.64357
LJ          -2.11076        -2.77039        -4.71093
LJ          -4.34185        -5.72807         5.59802
LJ          -2.32184       0.0620772       -0.570865
LJ           3.87805         6.06146         1.49101
LJ           5.87376         1.44346         5.61385
LJ           1.15856        -3.27266         1.38247
LJ          -3.94071       -0.819141       -0.114923
LJ          -6.19911        -6.28247      -0.0201052
LJ          -5.88998        -5.20111        0.161648
LJ          -4.47231        -0.27034        -5.89682
LJ          0.556018         4.44574         1.41926
LJ          0.974894        -0.63512         3.12417
LJ           1.61546         4.73117         -4.6234
LJ           3.19942         5.77162        0.450123
LJ           4.87141        0.510924         4.62817
LJ           2.89009        -3.18715        -2.68416
LJ           5.43084         3.95399         2.13151
LJ          0.545981        -1.30157        -2.64463
LJ          -3.47648        -6.37075         5.12794
LJ          -3.09508       -0.109746         1.89131
LJ          -1.33882       -0.168268          4.8628
LJ          -5.57825         4.68997        -1.31988
LJ           5.54304        -2.54921        -2.29071
LJ           2.01335        -4.27562         4.47745
LJ         -0.638843        -1.41884        -1.30625
LJ          -2.57912        -1.16652         2.41212
LJ           3.27466         2.22692         4.69286
LJ           6.22059         0.79467        0.971111
LJ           -4.9555        -3.23695        -2.77401
LJ          -3.59868        -1.51676         6.29349
LJ           3.45989        -1.93175         5.34874
LJ           4.56338        0.328989        -4.71343
LJ          -2.34005        -3.18211        0.819797
LJ          -2.44589         5.45417        -3.40502
LJ          -4.42121        -6.01161        -2.08624
LJ           3.59134          4.8339        0.372938
LJ           1.50102         5.45447        -2.18407
LJ          -2.81073        -6.18731         6.02549
LJ           5.22571         2.96447         -3.0708
LJ          -4.43593         4.09667         -2.8054
LJ           4.92781        -6.33933         1.19079
LJ          -1.93763        -4.89316       -0.511918
LJ          -3.12453       -0.488083         6.39541
LJ          -2.57843          4.5153         2.53762
LJ          -6.04977         5.40949        -5.53086
LJ           5.00426         5.52997        0.982743
LJ           5.90624         6.28254         1.25054
LJ           3.40123         6.16908        -2.13068
LJ           4.66002        -4.64364        0.279759
LJ           1.85583         2.68329        -5.65222
LJ            5.0861        -1.40911        -2.67619
LJ           2.98767         3.31485         2.11147
LJ           -1.3396         1.29297          1.4119
LJ          -2.29894        -1.19224         1.04666
LJ          -5.05181        -4.78387         -2.8743
LJ          -2.65485         -3.7647         4.64442
LJ          -5.23879        -4.27642         -4.8752
LJ           1.51137        -2.58847         0.87372
LJ           3.24639        0.366783         4.28048
LJ          -1.93009        -2.06349         3.84261
LJ          -5.92499         6.38576        -3.99554
LJ          -3.00787        -3.77777          6.1091
LJ          0.563397       -0.704695        -6.13651
LJ           4.07497        -1.77885        -2.69117
LJ           3.42376        0.266733       -0.871099
LJ          -2.13878        -0.87855         4.23111
LJ           1.96161         5.35329        -5.36517
LJ           -4.1525       -0.624964         1.05567
LJ          -1.21911          1.5135         2.63437
LJ          -3.98812         5.67153        -5.42822
LJ           3.27571         -2.5271        -1.90877
LJ           1.78491         5.94374        0.913264
LJ          -5.82772         4.64732         4.35432
LJ           5.67787       -0.528053        -2.18571
LJ           6.11841           4.834         -4.0952
LJ           1.85658         1.20248       -0.330329
LJ          -5.44047        -6.19588        -3.20276
LJ            4.8575         -2.0466         -1.6768
LJ          -3.87277        -1.20189         3.27251
LJ          -1.29625        -5.96941         5.57022
LJ          -1.27415        -3.66266        -4.32258
LJ          -6.38069         3.83166        -1.02869
LJ         -0.927967     -0.00911709         1.50972
LJ           2.27311        0.232779       -0.525213
LJ           3.49378        0.630916        -4.47767
LJ          -0.59665         1.05915         0.39618
LJ          -6.43831         2.49797         1.91339
LJ           3.81339         3.82823        0.971032
LJ           -3.8523        -2.88987        -2.55855
LJ           -5.8615         1.52497          5.9283
