108
#Comment!
LJ           4.59557        -6.00154         1.04348
LJ           4.19215        -0.32245         5.50639
LJ          -2.29036        0.637083         5.96352
LJ            -5.873         1.35543        -1.88652
LJ           2.98085        0.146755         3.52762
LJ           3.10544         1.85574       0.0964423
LJ          -1.82092        -1.25504        -6.46278
LJ           6.19796         4.30892       -0.181041
LJ           5.92177        -1.06247        -4.02919
LJ           6.05916         6.32834        -6.16454
LJ           6.37924         5.75043        -1.43537
LJ            6.1801           6.426        -4.39375
LJ          -1.36375         -3.8289         5.13278
LJ          -2.98462         5.10406          1.3111
LJ           2.15267         4.13644         6.30311
LJ           -3.4924         4.68341        -4.38951
LJ           1.27442        -4.16634         1.72266
LJ           1.54432        -6.31082          -1.661
LJ           2.18309        -5.62202        0.888694
LJ           2.57028         -4.7851         1.23712
LJ         -0.692131        -3.11209         4.26885
LJ          -1.06971          5.0784         5.46999
LJ          -4.76831        -5.25872         3.03884
LJ          -4.21247         -5.3506        -2.92804
LJ          -5.65268         2.44376          3.9586
LJ           5.05355        -4.83868        -1.43281
LJ          -5.83998        -3.96833         2.01215
LJ          -4.68004        -5.87049         -2.3544
LJ         0.0896601        -2.33967         1.45575
LJ         0.0518503         5.99433        -4.80046
LJ           2.99477        -1.18167          5.4464
LJ          -6.11345         1.18946         4.26869
LJ          -1.64221        -4.85709         6.28408
LJ          -3.08779         4.21234        -4.03487
LJ         -0.413948         -4.9819        -1.13848
LJ           5.87681        0.174261         -5.1694
LJ          0.915758        -3.19794       -0.665476
LJ          -5.67849         2.04166        -1.49836
LJ          -1.40193         5.62449        -2.32487
LJ          -2.75401        -5.31025        -4.80789
LJ            2.3171        -5.40007        -5.00171
LJ          -5.29845        -4.39917         3.16591
LJ          -6.33759       -0.821794         3.14621
LJ           1.43768         6.30639        -3.53346
LJ          -2.15813          6.4378        -6.37304
LJ          -5.54642         0.57185         2.50881
LJ           5.99616          1.2431         -4.6407
LJ           -3.3475        -2.20832        -2.94427
LJ           3.17069        -2.41585        -1.40233
LJ          -6.19585        -5.84603         5.19145
LJ           2.53809       0.0604802        -1.52287
LJ          0.239355        -3.29866        -2.24133
LJ           4.02175         4.18061         1.64757
LJ         0.0930529         2.44059        -3.10774
LJ           5.38454         4.60642        -6.12576
LJ          -1.91132         1.38903         4.44812
LJ           1.99039        -5.00948         6.37132
LJ          0.664427        0.134914        -1.00374
LJ           5.58514        -5.06243         2.37728
LJ          -5.61988        -5.38927      0.00110586
LJ         -0.330111         3.98561        -6.05728
LJ           1.56795        -3.99148        -2.78531
LJ          -3.55747         1.26517        -1.66739
LJ           3.86749         6.40811        -4.60699
LJ         -0.315857        -4.19695         2.59545
LJ          -3.99686         1.24575       -0.650539
LJ          -5.62918        -4.32419         5.98716
LJ          0.780577        -5.88401        -3.14242
LJ           -3.0729        -4.62014       0.0452987
LJ           6.37939         -1.8437        -6.38554
LJ         -0.449715        0.875295        -3.54212
LJ          -5.54411         1.32277        -4.78358
LJ         -0.944524        -4.35623        -2.75072
LJ          -1.99835        -1.08191        -4.91559
LJ          -4.69382         2.61505      -0.0669357
LJ          -3.45379         5.69622         1.81391
LJ            0.2224         6.23828        -6.24305
LJ           4.15956        -4.44184        -3.22028
LJ           3.78401         2.93728       0.0586477
LJ          -4.03891        -3.57979       -0.441985
LJ           4.74625       -0.537374        -2.43354
LJ           5.03371        -0.32724         3.45058
LJ          0.683925        -2.69325         3.95623
LJ           5.32618        -4.50961         4.80919
LJ           2.97479         3.29419         -1.7584
LJ           -1.3103        -4.12723        0.594451
LJ         -0.604226        -2.80031         4.50953
LJ          -2.54916         5.89307         3.55293
LJ           1.00287        -3.75518         2.68472
LJ           4.41471        -6.06876         -3.1952
LJ          -4.32448        -3.04678       -0.796719
LJ          -2.33514         4.96651        -3.77511
LJ           5.07636         6.16633        -4.42471
LJ           1.18446         1.42135        -3.04379
LJ           1.58389         3.74933       -0.368097
LJ           3.49751        -5.49799         6.29029
LJ          -1.32344          3.9003         6.32835
LJ           4.06249        -3.46611         1.44301
LJ           5.23354          4.6963        0.433912
LJ          -2.04989        -2.13389         5.68897
LJ          -4.82754         1.57546         3.89725
LJ          -5.33582         5.35553        -6.32257
LJ           4.53809        -2.37086        -1.73517
LJ          0.234534       -0.374777        -4.43314
LJ          -4.23191        -3.76131         5.18438
LJ           6.15257        -3.60918        -2.14813
LJ            3.9706        -3.52948         -2.1783
LJ          -5.44708         4.34397         1.81522
