108
#Comment!
LJ           4.83301        0.750555       -0.448403
LJ         -0.533372         2.76359        -2.27709
LJ            2.5547        -6.06579         5.11524
LJ          -3.85975       -0.918059         5.49272
LJ          -6.31152         5.20744        -0.80341
LJ           2.00749         2.91681         5.06217
LJ           5.77283        -1.46078         6.12759
LJ            6.0541         1.10889        -1.30834
LJ          0.251992        -5.86249         3.18521
LJ           -5.9442        0.842714         1.78987
LJ           2.85885         6.03977        0.421233
LJ           2.21273         3.05607        -4.86149
LJ           4.12653         6.32588         4.24482
LJ          -5.09427        0.934532         2.75932
LJ           3.75935         1.51509        -3.59923
LJ          0.895687        -2.64343       -0.972842
LJ       -0.00158295         3.17927         4.71677
LJ          -1.82471         6.21629        -4.85687
LJ         -0.750789        -0.85542       -0.658745
LJ          -1.86423         6.44501          4.0656
LJ          -4.26665        -3.29608      -0.0820438
LJ           3.00519         2.95848         1.91309
LJ           3.79484       -0.266604        -3.88317
LJ           5.19316        -5.88514       -0.527982
LJ           2.34529         0.28033         3.22132
LJ           6.18406       -0.202348        0.689623
LJ          -1.37625        -3.70018          3.1862
LJ          -2.17592          -5.018         3.44139
LJ          -2.19611         4.88377        -4.11316
LJ          -5.81567         1.01414        0.267659
LJ          -3.23557          0.9537         5.13239
LJ          -5.83075          1.9074         4.25782
LJ          -1.22045          6.3217         4.99017
LJ          -2.12313       -0.783538         2.77249
LJ           -3.8419        -1.70267         3.15158
LJ           4.18926        -4.43593        -4.99152
LJ          -1.47311         4.59394         4.74369
LJ           -4.7946         -1.6072        0.474526
LJ           1.38113         4.57993         1.38544
LJ         -0.327953        -5.04803         3.03063
LJ          -1.14496         2.81945        -5.39218
LJ           -3.3867         2.66185        -1.21888
LJ           2.30008        0.670115        -4.14044
LJ           4.13491           2.887          2.8857
LJ           1.91008        -5.11202         -5.3712
LJ          0.992897         -5.5517         1.62178
LJ         -0.469102        -2.18001         5.29756
LJ           2.91239        -5.21801         3.08355
LJ          -4.31276         6.03607         6.11758
LJ          -5.25975        -0.28317         2.39428
LJ          -1.04872         5.89075        -2.59857
LJ            1.3601         2.23829        -5.08111
LJ          -2.71858         5.25306         3.91934
LJ           4.96874         5.85424       -0.432089
LJ          -4.16077         6.01729         3.89906
LJ           1.79624          3.8519       -0.747985
LJ           4.68396        -4.45691         3.48862
LJ          -4.08843         6.22497         2.79694
LJ           -4.4523        0.728929         6.15866
LJ          -5.21252         -2.2687        -3.61216
LJ           -1.4814         5.11715         5.39346
LJ          -0.29182         2.75148       -0.854506
LJ          0.666513        0.407938        -3.79651
LJ          -5.01611        -2.59329        -6.03824
LJ         -0.531679         3.23568         3.31685
LJ           1.42392         2.84863        -3.31201
LJ          -6.23535        -3.74265        -1.40269
LJ           3.05137         -3.7816         -2.3656
LJ           5.92089         4.81774        -5.96061
LJ           2.48744         1.43831         1.75132
LJ         -0.738739        -5.06704         4.75988
LJ         -0.181155        -4.11211        -3.65665
LJ           5.09868         -1.5495         6.32996
LJ           5.99877         6.16127        -1.87514
LJ          -2.98096        0.754399        -4.18256
LJ           6.42874       -0.378297         5.27017
LJ           5.72658         2.50905        0.390637
LJ          -3.97505         3.89017        -5.54352
LJ          -4.01278        0.708819        -5.08648
LJ          -4.55467         2.73616        -5.90222
LJ           1.93403        -2.64596        -5.20013
LJ          -5.65212         1.74843        0.740481
LJ            2.6326         6.27041         -2.1127
LJ           2.80214        0.257808        -2.11086
LJ           3.68317        -1.22817        -5.35862
LJ          -2.78862        -5.38564          4.0414
LJ          -2.97691        -5.44603       -0.495603
LJ          -5.55656         1.65928         -5.3047
LJ           -5.1622        -5.54147        0.745593
LJ          -1.39052        -2.34452         2.53764
LJ           4.40668         6.43397         3.50578
LJ            3.5669         -1.1413         3.95159
LJ          -3.26453        -4.13606        0.668185
LJ          0.355822        -4.34838         6.07804
LJ          0.122841         1.00434         3.82155
LJ          -2.99916         6.05354         5.52541
LJ           2.67213        -0.52287         5.37373
LJ           4.08407        -4.16094        -5.47657
LJ          -1.07157        -1.95011       -0.142538
LJ          -1.38302         2.22461         5.08966
LJ            2.3624        -0.46345         5.75263
LJ           4.80872        -2.22079        0.592862
LJ          -5.22065        -2.19269        -1.94517
LJ           0.30391         5.84256        -5.73886
LJ          -1.00191        -2.70813         4.79386
LJ           1.84758       -0.938234         4.17524
LJ          -1.03475         -5.2449      -0.0136089
LJ           5.15325         1.98758        -3.17662
