108
#Comment!
LJ          0.765439        0.692067        -2.41377
LJ           5.78075       -0.448334         6.01175
LJ           5.23106        0.293143        0.196246
LJ           4.98279         3.93781        -1.74284
LJ          -6.33636         4.41038        -3.53527
LJ           5.26556         1.90683         1.29972
LJ          -2.05593       -0.693913         1.99434
LJ           3.21306        -1.10207        -3.81068
LJ          -3.92819         4.80021         3.36503
LJ          -3.38641        -3.36238         -4.9439
LJ         -0.138115         2.14527        -5.59722
LJ           -3.9857         4.98314       -0.354934
LJ           2.65807        -4.30049       -0.170454
LJ          -1.41275        -4.94236        -3.36832
LJ         -0.690293         3.91982        -4.46278
LJ          -2.08236       -0.740437         4.35255
LJ          -3.88923         -1.1909        -5.17435
LJ         -0.115016         -3.9399         6.38249
LJ          -2.49337        -1.54367        -3.95363
LJ          -5.29652         -3.1029         3.86334
LJ          -1.72114        -2.35838        -3.41066
LJ           3.28786         6.32086         2.62023
LJ           5.56772         1.83673         3.81294
LJ         -0.496045        -5.60834         2.21142
LJ          -5.43711        0.932319          1.3196
LJ          -5.56749        -4.75665         2.04368
LJ           6.38456        -3.90291         1.73686
LJ           -4.1279        0.964619         5.87617
LJ          0.340805         2.44406          1.7649
LJ          0.271518        -1.04583         2.09271
LJ           1.30411         4.86319         -4.4057
LJ           3.01816        -5.32111         2.35301
LJ           4.94085         3.26527         4.87037
LJ           1.51438        -4.61635        -3.56672
LJ           5.37505         2.76072         2.29181
LJ           1.84937         -1.0313       -0.102487
LJ          -2.74914        -5.69571         6.06316
LJ          -1.06377        -1.07905          1.9569
LJ          -2.00553      -0.0223101         3.41622
LJ           -6.2047         3.65524        -1.60438
LJ            5.2058        -1.34434        -1.95098
LJ           3.80044        -3.62594         5.25474
LJ          -2.29132        0.377618        -1.30275
LJ          -2.45248        -1.77128         2.84079
LJ          0.863494       -0.544079         2.91747
LJ          -5.64811        0.973148         2.62671
LJ          -6.22972        -2.53692        -2.70535
LJ          -3.73249        -2.36588        -5.41111
LJ           3.55361        -3.33607         6.22785
LJ            4.3524       0.0397116         4.63437
LJ          -3.05399         -2.3047         1.90323
LJ           -1.7745         3.81277         -3.9509
LJ          -5.61377        -4.30252       0.0340628
LJ           4.07106           3.457        0.619753
LJ          0.545318         4.99167        -2.18028
LJ          -2.14478        -4.72142         6.23015
LJ          -5.83771          2.7356        -2.15221
LJ          -4.80235         3.16734        -3.53654
LJ           6.19195         6.15101         3.17299
LJ          0.891606        -3.04186       -0.251645
LJ          -3.88112        -1.79472         5.70659
LJ          -2.22421         4.98779         4.03245
LJ            6.0019         3.28653        -3.70225
LJ           6.44857         3.29395        0.938775
LJ          -5.90736          5.2076       -0.187338
LJ           3.27036         6.32609        -4.04406
LJ          -6.37592         4.83749        0.843555
LJ           2.34968         2.61598         5.34636
LJ           4.01139        -1.57545        -2.20303
LJ           4.26097         3.20149         1.73256
LJ         -0.828959        0.482832         1.38701
LJ         -0.292708       -0.752618         1.34632
LJ          -2.76846        -3.59325        -2.24425
LJ          -3.04644        -3.51318         2.81061
LJ          -5.98708        -6.29576         5.73996
LJ           3.05111       -0.264279        0.707368
LJ           1.48702         -3.0188         1.30452
LJ          -1.25007        -2.29971          2.7499
LJ           5.16712         5.98519        -4.85267
LJ          -3.10488        -3.07704         3.81683
LJ          0.497699       -0.871737         4.86861
LJ           3.62075        -2.78413        -1.74467
LJ           2.91865        0.270643       -0.989649
LJ           -1.4375         -1.1424         3.04683
LJ           4.08319        -6.14708        -4.85939
LJ           -4.6983      -0.0518592        0.999733
LJ         -0.562887         1.31527         2.34125
LJ           -2.5338        -4.08232        -3.65545
LJ           3.81606        -3.03202         -2.8808
LJ           1.00223        -6.37151         3.44229
LJ           6.31611         5.38476         4.38689
LJ           5.80327       -0.391744        -1.65215
LJ           3.77184         4.64845        -3.30817
LJ           2.23659         2.05361       -0.682815
LJ           6.22531         4.42602        -2.42556
LJ           4.40778        -1.87628           -1.32
LJ          -4.90694       -0.184147         2.72477
LJ            -2.717         5.87545        -4.83439
LJ          -1.37683         -3.3386        -2.21065
LJ          -5.01482         3.20153        -1.33712
LJ          0.371403        0.918879         1.91584
LJ           2.46874       -0.750443        -1.18782
LJ           2.76764        0.204721        -5.65696
LJ         -0.293472         1.82447         1.32401
LJ           5.47099         1.69859         2.32733
LJ           3.18223         2.32334        0.890587
LJ          -4.84203        -1.44927        -2.67648
LJ            5.9696         1.61375         4.87015
