108
#Comment!
LJ          -6.00483        -5.64071        -3.69135
LJ          -3.16101      -0.0737412        -3.76222
LJ          -3.24082        -1.86743        -1.48084
LJ          0.471863        -5.60058        0.420057
LJ        -0.0251757        -2.62714        -3.16518
LJ            2.8618         -4.0864         6.17325
LJ           -1.7857        -2.68627       0.0197859
LJ         -0.400798        -1.57842        -2.76916
LJ           5.00414         -2.3873         -4.9027
LJ          0.798049        -2.23263         -2.5813
LJ           2.61853        -5.41998        -5.27101
LJ           2.94865        -4.20764        -1.53518
LJ          -4.29525       -0.228611       -0.683728
LJ          -1.78598         1.57229        -3.76668
LJ          -2.15287         1.47277        -1.83133
LJ          -3.49995        -5.04363       -0.789717
LJ          0.558643        -1.41113        -3.33954
LJ           0.17376        -1.27064        -4.39069
LJ          -1.09704       -0.605979        -1.78899
LJ           1.22473       -0.780012        -1.79087
LJ          0.935063        -2.36613        -3.73735
LJ           1.94932       -0.555193         -4.0706
LJ           2.78403         1.40074       0.0899239
LJ           4.82734        -0.50744        0.384272
LJ          -4.53317        0.284632        -4.97987
LJ          -4.73368        0.631063        -3.95401
LJ          -3.65268        0.650769        -4.50412
LJ         -0.770034         1.44891        -4.33298
LJ           -4.7626         1.26918         6.45859
LJ          -4.22889         2.45629        -6.03476
LJ          -1.95393         2.04559        -2.83472
LJ          0.973986       -0.327651        -3.28828
LJ           2.06484       -0.317106         -3.0753
LJ          0.106255         2.11716        -4.20336
LJ         0.0461463         4.58969         -2.6343
LJ            2.7993        0.732539         -2.1981
LJ          -1.38551         6.46144         1.29467
LJ         -0.533673        -2.27134        -1.65926
LJ          -2.52874        -6.39952        0.803315
LJ          -2.04654       0.0987505        0.113923
LJ          0.871046        -2.46156       -0.630193
LJ          -2.07502        -1.21122        -3.72262
LJ          -4.25921        -2.67251        0.923257
LJ         0.0121754        -2.67276      -0.0805708
LJ          0.521691        -2.24797        -1.52517
LJ            5.7743       0.0750776        0.813676
LJ           2.40121       -0.914516        -1.58124
LJ          -1.08497        -2.66674         1.26895
LJ          -4.69644        -1.49475        -2.98365
LJ          -3.31849        0.570878        -1.16614
LJ          -5.79193         1.78044         1.13486
LJ          -6.15039        0.126592         1.70048
LJ           1.28718        -5.56146         -4.5754
LJ          -1.75816         2.69743       -0.709699
LJ         -0.631346         1.22736        -1.18551
LJ          0.197123        -1.27552         2.36325
LJ          -4.61598        -2.17792         1.72487
LJ           4.00054        0.808905        -2.09047
LJ          -1.95999         -1.7906         -0.7555
LJ          -1.62267        -0.47995       -0.806555
LJ            -3.953         3.79335         1.92022
LJ          -2.02788         3.41974        -3.10003
LJ           5.68695         5.41709       -0.429095
LJ          -3.46347       0.0164894      -0.0117528
LJ          -2.64454        0.929147        0.753276
LJ        0.00103506          3.8835        0.156395
LJ          -1.46854         4.75764       -0.674825
LJ          0.772293         1.65807        0.290694
LJ           1.04506       -0.273052        0.253321
LJ         -0.138485         5.31225         1.21692
LJ          0.199905        0.562203         1.87295
LJ           1.86837           5.251       -0.510689
LJ          -1.34758          -1.496        0.746221
LJ          -1.88946        -1.00147         1.83513
LJ          -3.14262        0.825067         3.67319
LJ           -3.6038        -4.56963        0.805746
LJ           2.61922          -5.371         4.88982
LJ          -1.79027        -3.44006        0.805141
LJ           0.61339        -2.22729          4.4209
LJ          0.709627        -2.77616        0.959892
LJ          0.719006        -6.37305         2.58147
LJ           3.54295        -1.38152        -1.58963
LJ           1.70693        -3.22523         0.34491
LJ           1.53718        -3.62395         1.31494
LJ          -3.87736        -3.47132       -0.274147
LJ          -4.25376        0.725937       -0.419494
LJ         -0.946195         1.06627        0.478754
LJ          -2.27121        -1.07581        0.331355
LJ          -4.54021        -0.26574        0.455097
LJ         -0.625994       -0.884039         3.23365
LJ          -2.24812        -1.72221         2.98652
LJ           3.11327        -1.04091         6.30884
LJ          0.904271        -1.50703       -0.337137
LJ           2.96347         2.07785         -1.1818
LJ           3.14771         2.61049         1.75223
LJ            2.1868        -0.15575        0.111915
LJ            -4.042        0.965654         0.83063
LJ          -2.89593         1.96606        0.156852
LJ           -1.0409       -0.944276         5.91879
LJ          -2.30668         1.66067       -0.756287
LJ         -0.911919        0.367745         1.48573
LJ           1.00377         4.51325        0.572629
LJ         0.0540997        0.910253         3.62344
LJ       -0.00636854       -0.253209         2.68609
LJ           3.35342        0.964782         1.21558
LJ           2.53762        0.288782         1.73183
LJ           1.77773         0.81811         6.38126
LJ           3.53422        0.675845          3.0391
