108
#Comment!
LJ           -3.2145        -3.22029        -3.22321
LJ           -2.1394        -2.17084        -3.20911
LJ          -3.23063        -2.16046        -2.16274
LJ           -2.1276        -3.23008        -2.14759
LJ          -1.05791        -3.22901         -3.2159
LJ         0.0298343        -2.15812        -3.24338
LJ          -1.09333        -2.15792        -2.14959
LJ       -0.00176807        -3.22632        -2.15064
LJ           1.11248        -3.23714        -3.22977
LJ           2.13146        -2.14486          -3.222
LJ           1.07209          -2.181        -2.17051
LJ           2.13997         -3.2345        -2.15937
LJ          -3.24496        -1.07767        -3.21635
LJ          -2.13951      0.00789927         -3.2304
LJ          -3.22349       0.0210386        -2.14141
LJ          -2.15879        -1.09272        -2.14233
LJ          -1.06838        -1.06574         -3.2204
LJ        0.00330697      -0.0196328         -3.2435
LJ          -1.08157       0.0268327         -2.1627
LJ        0.00474332        -1.07609        -2.15522
LJ            1.0732        -1.07631        -3.22481
LJ           2.13628       0.0205499        -3.21618
LJ           1.08166       -0.024802         -2.1297
LJ           2.18388        -1.07473        -2.14361
LJ          -3.24384         1.07037        -3.24281
LJ          -2.17833         2.15775        -3.23703
LJ          -3.23395         2.13531        -2.16089
LJ          -2.15811         1.08505         -2.1545
LJ          -1.08689         1.06602        -3.21782
LJ        -0.0178323         2.13811        -3.22779
LJ          -1.09199         2.16419        -2.17049
LJ        -0.0242772         1.07313        -2.15475
LJ           1.06697         1.05689        -3.18476
LJ           2.13161         2.14028        -3.22557
LJ           1.06654         2.14931        -2.15727
LJ           2.13363         1.09825        -2.14397
LJ          -3.21777        -3.24893        -1.06821
LJ          -2.15045        -2.17465        -1.07321
LJ          -3.23155        -2.18303     0.000302387
LJ          -2.15754        -3.21202      0.00396344
LJ          -1.06214        -3.22432        -1.06535
LJ        0.00503938        -2.13481        -1.09052
LJ          -1.08742        -2.12287      -0.0116621
LJ       -0.00469269        -3.22531       -0.020137
LJ           1.04769        -3.22115        -1.08491
LJ            2.1863        -2.14094        -1.06762
LJ           1.07801         -2.1448      -0.0180235
LJ           2.14156        -3.22575      0.00453808
LJ          -3.24062        -1.03973        -1.07356
LJ          -2.14203      0.00456775        -1.09885
LJ          -3.25627     -0.00443155       -0.018781
LJ          -2.16675        -1.06643      -0.0251553
LJ          -1.05859        -1.11727        -1.12442
LJ        0.00826482         0.02133        -1.08334
LJ          -1.06561     -0.00724168      0.00568937
LJ       0.000443455        -1.08134       0.0179558
LJ           1.07762        -1.07944        -1.09224
LJ           2.15851      0.00785084        -1.08706
LJ           1.06149     -0.00889658      -0.0098417
LJ           2.14012        -1.07382     -0.00170228
LJ          -3.23808         1.10035        -1.06299
LJ          -2.14009         2.14933         -1.0916
LJ          -3.25144         2.15373      -0.0213803
LJ           -2.1566         1.06044     -0.00509514
LJ          -1.08255         1.06235        -1.05621
LJ        0.00158769         2.14246        -1.09457
LJ          -1.07127         2.12995      -0.0130685
LJ        0.00593816         1.09319      -0.0194364
LJ           1.06398         1.07646        -1.08864
LJ           2.13538         2.15649        -1.07447
LJ           1.06566         2.14824      0.00877372
LJ           2.14715         1.09594       0.0119974
LJ          -3.22499           -3.23          1.0782
LJ          -2.15741        -2.14861         1.09647
LJ          -3.22664        -2.13184         2.15049
LJ          -2.16095        -3.24561         2.14788
LJ          -1.05961        -3.25231         1.09366
LJ       -0.00318029        -2.17278         1.08075
LJ          -1.05327         -2.1235         2.16011
LJ         0.0119081        -3.22271         2.14831
LJ           1.05885        -3.23717         1.06182
LJ           2.16089        -2.15997         1.07071
LJ           1.08721        -2.16224         2.14722
LJ           2.15113        -3.24103         2.15415
LJ          -3.23322        -1.08261         1.08479
LJ          -2.17313     -0.00357871         1.07297
LJ           -3.2195      0.00807145         2.15745
LJ          -2.16734        -1.05804         2.14302
LJ          -1.09428         -1.0584         1.07528
LJ        -0.0150814      -0.0207909         1.08912
LJ          -1.06786     -0.00692439         2.13915
LJ          0.011689         -1.0822         2.18235
LJ           1.08568        -1.08559         1.07075
LJ           2.14681       0.0166896         1.08086
LJ           1.10287       0.0159356         2.14055
LJ           2.15261        -1.07217         2.13652
LJ          -3.23151         1.07914         1.06745
LJ          -2.15523         2.16742          1.0736
LJ          -3.21679         2.13662         2.17511
LJ          -2.13455         1.08145         2.13565
LJ          -1.06765         1.06588         1.09698
LJ       0.000785736         2.17387         1.07748
LJ          -1.06844         2.15296         2.17155
LJ        -0.0106791         1.07289         2.17373
LJ           1.09535         1.09085         1.07222
LJ           2.16635         2.14251         1.07913
LJ             1.073         2.13136         2.14885
LJ            2.1726         1.07445         2.17284
