108
#Comment!
LJ        -0.0758926      -0.0911511         6.01686
LJ           -4.6572         3.00132        -1.03773
LJ          0.134497        -6.09674        -4.15639
LJ           1.22969        -5.04868         1.51725
LJ         -0.403785        -3.58858          3.6478
LJ            4.2316        -5.73772         2.23314
LJ           3.51092         6.08428       0.0763851
LJ          -1.03012         1.21042         3.93122
LJ          -1.64389         3.84505        -1.16807
LJ          -3.44187       -0.544107        -4.34831
LJ          0.766246        -5.94866        -6.22496
LJ           2.51607         4.09716        -3.41494
LJ          -4.27522        -5.59623         1.77271
LJ          -2.01978        -3.66601        0.113711
LJ           4.58258        -2.07776        -4.26578
LJ          -4.20116        -6.07188        -4.79893
LJ          -3.29596         3.83469      -0.0826068
LJ           4.92446        -1.08484         5.50864
LJ          0.238544         5.05507         1.99849
LJ            6.2164         5.02497         5.58165
LJ           5.36144         -4.8389        -4.64956
LJ           2.00867       -0.867006        -6.27439
LJ          0.734468         1.31631         1.98655
LJ           6.18288          4.5212         0.83774
LJ           3.57303       -0.900803         0.82034
LJ          -4.78029        -4.94878        -2.21953
LJ          -2.43198       -0.566862        -4.37159
LJ           5.08814        -2.72053        0.438345
LJ           4.43375        -2.91373        -6.32277
LJ           3.68601         -5.0691         -2.1722
LJ          -5.35764        0.882911         2.92935
LJ          -1.45046        0.127649        -6.45508
LJ           4.22893         4.88546         3.78984
LJ          -4.24095         5.28495         4.65523
LJ           2.92489        -6.06546        -2.00246
LJ         -0.216272        -6.01063        0.443088
LJ           5.08903        -2.77604         6.23037
LJ          -3.13401         2.61419        0.539421
LJ          -2.38792        -6.44379        -1.62714
LJ           2.19604        -2.18659         4.87123
LJ          -2.92443        -2.11564        -2.72896
LJ          0.389643         6.03151       -0.132994
LJ           5.94535        -3.28552        -3.16912
LJ           3.62671       -0.538743         5.76645
LJ          -3.24278       -0.858142        -4.38017
LJ          -1.50501        -4.19183         -3.4279
LJ          -4.96938        -4.67355        -1.86172
LJ           5.27339        0.924732          3.4635
LJ          -5.82667        -3.37918        -6.27905
LJ          -4.51313       -0.441994         1.69452
LJ           3.13931         -4.5003        -2.68768
LJ         -0.757373         4.51089         1.17378
LJ            1.8809         4.07428      -0.0560032
LJ           1.94668           -5.08         1.02833
LJ           5.54098         2.33515       -0.752176
LJ         -0.203252         5.96063        -6.33089
LJ           2.78015         6.37719        -5.31422
LJ           3.20091         4.47231          3.5325
LJ           4.26375         5.71067         6.04112
LJ          -1.34933        0.891584         2.40865
LJ           -1.0649        -2.18959       -0.276821
LJ          -4.12991        -3.55048        -5.71551
LJ           4.11709         3.18937        -1.63478
LJ          0.474312        -3.37626        -6.37452
LJ         -0.634317          5.7386        -2.93353
LJ          -2.81479        -1.25883        -1.02302
LJ          -1.99003       -0.917276        -2.07994
LJ           3.55374         -4.3471         2.16096
LJ           3.27665         2.59581        -1.51461
LJ          0.348206         6.37534         5.36457
LJ          -5.69702        -3.35443        -6.05459
LJ           1.48618         4.47959        -3.74627
LJ         -0.488037        -1.71224        0.393871
LJ           -4.5551         1.79936        -1.26963
LJ          -5.45649        -5.94197        0.629276
LJ           1.84319         2.78739         4.03566
LJ             -0.48         3.95167        -1.64159
LJ           5.07467         3.11285         6.24932
LJ          -6.26713         -1.5915        -4.68348
LJ         -0.517571        0.838467       -0.322895
LJ          -2.30825         2.26217         6.08919
LJ           3.69794         3.19747         3.58531
LJ           4.10923        -6.25264          3.2956
LJ           3.50739         2.09963         4.02752
LJ          -1.18494        -2.26757         5.09538
LJ          -3.49721        -0.74373        -1.07468
LJ           5.89831         5.61579        -6.16579
LJ          -4.37098        -5.59807        -5.39063
LJ          -1.95353        0.454325          5.9935
LJ           -4.5673        -2.31954          2.8701
LJ           1.23737         2.52773        -1.17744
LJ          -5.81697         1.18744        -4.22024
LJ           4.30952         2.23961         5.65702
LJ           1.79679         3.99379         5.43854
LJ          -2.39632        -4.90785         3.02772
LJ           5.07403        -5.73223         3.95775
LJ           6.02554        -3.79287       -0.263875
LJ          -1.43879         -2.8757         4.90955
LJ          -4.51507         4.63729        0.589416
LJ          -2.84457        -3.47238         -4.6882
LJ           3.58578          3.4532        -3.06939
LJ          -1.33594       -0.577616         5.84738
LJ          -2.00448        -4.56389         4.59891
LJ           3.46073         5.23851        -4.88702
LJ          0.643492       0.0022352         -1.5443
LJ           3.35565         6.27274         5.22859
LJ          -1.92282         3.31404        0.159341
LJ          -4.04183         5.43889        -5.94241
