108
#Comment!
LJ          0.535796         -5.1985         5.34817
LJ          -4.12256        -5.91707        -3.58377
LJ           1.89556         5.70809         5.43269
LJ           4.13314         4.93771          -6.425
LJ          -6.11029        -4.83527        0.305239
LJ          -1.10451        -4.58749         3.76409
LJ          -5.82515          -4.578        -3.49549
LJ           6.38407         4.00853       -0.559618
LJ           2.70183         1.52926        -3.09161
LJ           1.43154         5.05498         -4.6985
LJ          0.324118        -5.29021        0.597482
LJ           3.63208        -2.51709        0.355733
LJ          -1.43373        -1.05076        -5.83636
LJ          -5.54488         3.27151         5.93085
LJ          -3.38593       -0.934499        0.302559
LJ           1.64458        -5.79576       -0.169749
LJ           1.73928        -2.92355          5.2938
LJ           2.54661        -1.66547        -4.67494
LJ          -1.18298         1.06503        -1.76962
LJ           1.15751        -2.34658        -4.05702
LJ          0.874343         2.30295         1.35417
LJ          -4.86034         1.97745        -6.03987
LJ           5.15752         5.38347        -6.31564
LJ           4.01146        -1.29036         3.94309
LJ           3.57269         3.43254        -6.44869
LJ           6.24441        -1.83547         4.62183
LJ          -1.59573         3.17209        -1.88979
LJ           5.37943       -0.727638         6.35386
LJ           1.67101         1.83929        -4.99683
LJ          -2.06851        -2.43771         3.53053
LJ           3.71196        -1.51873         1.93402
LJ           4.71514        -4.08536         5.20354
LJ          0.524978         -5.3424        -5.90533
LJ          -5.99772         1.59889         4.31964
LJ           -1.5661        -2.03047         3.10756
LJ           -5.4276       -0.358731        0.812915
LJ           1.58445         5.40145         2.82575
LJ           5.59946        -5.95878         -5.2165
LJ          -0.71124         5.97048         1.34154
LJ          -5.94406        -3.98154         4.26131
LJ           0.36131         5.11425         3.32916
LJ          -3.38563         -5.2851        0.453337
LJ           2.12324          2.2347        -3.99159
LJ          -5.62019        -2.91231        0.723607
LJ          -3.52095       0.0917856         4.24452
LJ           4.73525         -2.0297         5.33374
LJ           2.45887         3.95159         4.28767
LJ          -3.52258        0.994606         2.42293
LJ          -3.10003         4.83309        0.705128
LJ          -5.10596         6.45696         6.18303
LJ           4.56675       -0.923815         3.18994
LJ           5.82208         1.93826         4.98632
LJ          0.285246        -4.17212        -4.28491
LJ          -2.46932        -0.92861         6.16066
LJ           1.76916         2.14763       -0.651667
LJ           1.27312          3.0513         4.82718
LJ           6.38309        -2.34119         4.38098
LJ           2.42321         2.85964         5.65028
LJ          -5.77725       -0.176944       -0.449321
LJ           2.57601        -5.48521        -2.87215
LJ          -3.42692       -0.829348        0.862599
LJ           2.46658        0.938459        -5.27244
LJ          -4.18719        -4.99389        -4.38502
LJ           4.64952         1.64926        -5.11252
LJ           2.22357        -3.39219        -1.06328
LJ         -0.300042          3.0356         1.27332
LJ          -5.62073        -5.26902        -1.68242
LJ          -5.86789         1.46663         3.35404
LJ           2.81851         -3.7529        -3.98745
LJ           4.37458         6.00775         4.61737
LJ           4.90613         1.60743        -5.04365
LJ          -6.22749        -4.67092         4.67142
LJ           6.32776        -6.39508          1.5032
LJ           2.49684        -2.18547         1.97635
LJ          -1.52286         3.71755          4.6959
LJ          -3.95837        -4.49726         3.60346
LJ           -4.5302         3.01274        -3.53321
LJ           3.54666         1.74038         3.06099
LJ           4.83143          1.2321         2.61559
LJ          -4.76548        -3.86804         5.73236
LJ           1.88512        -5.69808         4.49015
LJ           3.78721        -1.42608        -5.88191
LJ          0.802715         5.19711        0.390813
LJ          -3.90542        0.818593        -2.58388
LJ           1.93537         3.71544         4.38482
LJ          -3.26727        -0.54534        -4.39443
LJ          -1.12558         4.53022        -4.46833
LJ           -5.9064        -4.71927        -5.04803
LJ           5.56295         0.53734        -4.34924
LJ           1.46518         0.38398         5.82041
LJ          -0.25793         5.79179        -5.30318
LJ           -4.4007       -0.126285        -3.58802
LJ          -4.09667         1.28268         2.47158
LJ           2.01202         6.42178         -0.4854
LJ           -5.7855         3.57664         2.58686
LJ         0.0182392         4.52065        -1.34248
LJ           1.33004         6.02521        -2.07195
LJ           3.83575         2.38248        -4.66504
LJ           1.93324         2.46271         -1.0773
LJ          -4.98701        -2.02483        -4.04563
LJ          -5.33877         3.25167         -1.6216
LJ           5.87006        -3.81427         3.73825
LJ          -4.65036         3.21036         2.54399
LJ          -4.92167         5.79896         1.50177
LJ           3.88297        -1.78209       -0.874997
LJ          -5.62961        0.104665        -4.12472
LJ           1.01644         4.38628        -4.66234
LJ           4.97028         3.76137       -0.252106
