108
#Comment!
LJ          -5.22382         -3.2026         4.52315
LJ          -6.35725        -3.93554          -5.344
LJ          -5.21008       -0.667246         6.43272
LJ            4.0638         3.93238        -2.85329
LJ         -0.303163        -1.32326        -3.79069
LJ          -2.28349        -6.40604        -1.02618
LJ          -2.81415        -2.55246         1.20168
LJ           5.07812         -5.0054         4.93117
LJ           5.29799        -4.06231        0.715012
LJ          -1.99204        -1.34583         5.68453
LJ           5.92517        -1.93253        -3.32074
LJ          -2.76858        -3.22026        0.663212
LJ           6.32805        -3.19677         2.75057
LJ            4.0337        -3.50305        -2.90402
LJ          -1.20393        -6.09849         4.18001
LJ           6.10485          4.3554        -4.17721
LJ          0.312305        -3.43661         5.23931
LJ           2.65883        -6.20742         5.73054
LJ           2.10428        -4.64182       -0.103995
LJ          -5.49224        -2.02646        -2.01968
LJ           2.00822        -3.97491         2.71331
LJ           -4.8083        -5.92114         3.80798
LJ           4.64084        -5.45674         3.96326
LJ          -6.01196        -3.36172         2.66195
LJ           1.06166         4.74013        -1.33997
LJ          -1.93757        -4.67314         5.07065
LJ           4.15026         -2.4959         1.40429
LJ          -1.52029         1.77888         6.24109
LJ         -0.322453         1.01892        0.247442
LJ          0.133678         1.24824        -5.60492
LJ           4.83208        -3.66275         5.27068
LJ         -0.605688        -3.93988         3.95963
LJ           2.26005         3.35717       -0.998675
LJ            4.2636         3.88736     -0.00424408
LJ          0.856848         5.77521        -3.38813
LJ           2.73967         5.79607         0.89058
LJ          -4.52108        -2.16045        -5.37998
LJ           5.19603         2.93897       -0.406508
LJ          -3.48533         1.76315        0.646843
LJ          -1.53546         5.09101         5.47677
LJ          -2.48592        -2.33136       -0.764931
LJ           3.05432        -0.49978        -1.68411
LJ          -2.16351         1.06087         5.27007
LJ          0.174447        -4.60447        -2.87824
LJ           2.91869        -5.58858       -0.862909
LJ          -6.16896        -6.08604         1.07383
LJ           1.12181         2.66167         3.46544
LJ          -1.74356         4.84919         5.97721
LJ          -4.64512        -6.10145         6.23121
LJ         0.0481312         4.12999         4.24854
LJ            5.2256       0.0455278        -2.69294
LJ          -1.54344         6.36815         3.18449
LJ            1.3355       -0.802681         3.41067
LJ           5.05617         1.34579        -4.01013
LJ           1.92063        0.712395         1.77501
LJ          0.532085        0.447262         5.97563
LJ           5.42333        -2.89146         4.84956
LJ          0.669063        -1.09443         4.10047
LJ           5.95698         4.41755        -5.14507
LJ          -1.77008         5.13658         5.16394
LJ           4.03379          3.9581         5.96371
LJ          -1.78467        -4.71079         1.46827
LJ          -5.12867        -1.76354        -3.30579
LJ            5.6464          3.6534        -1.52721
LJ          -3.21563         5.33697         5.96723
LJ          -2.81818         4.87875        -2.05953
LJ             3.633         -1.7613         1.48422
LJ          -3.97196        -2.97323        -4.72389
LJ          -2.47661        -1.97534        -1.22234
LJ          -5.11197          4.2709         1.69847
LJ        -0.0603542       -0.890055         5.86337
LJ           2.08738         6.30081          3.1517
LJ           3.44993         4.87795         6.44385
LJ          0.723736        -1.66455        -2.80315
LJ           4.01761        -3.05159        -4.31746
LJ          -4.87064        -5.33929         -2.0393
LJ           4.55883        -4.70872        -5.89076
LJ          -4.90796        -5.69591        -2.80116
LJ            1.0658         2.10235         3.34062
LJ          -2.91142         3.41287         5.52063
LJ             5.288         5.23491        -6.21451
LJ         -0.526032        -2.78883        -4.81041
LJ           3.53065         -1.0397         5.33588
LJ          -3.92184        -2.85019         5.81259
LJ           3.36257         6.13731        -1.90858
LJ           3.72527        -2.20071         3.25239
LJ          -2.39284        -2.45035         4.47361
LJ           -3.6941         5.33099       -0.278689
LJ          -4.95982          6.3675        -1.31215
LJ           3.43409        -6.20295        -2.17898
LJ           1.10227         6.02204           4.206
LJ          -5.35861        -1.17052         2.62447
LJ          -4.34001         2.34316        -0.30965
LJ           5.89882         4.51445        -5.38105
LJ           4.08064        -2.44717          3.7646
LJ           6.37879        -1.54975         2.79082
LJ          -1.54899       0.0599304        -2.18592
LJ           3.63803        0.372332         -5.8028
LJ           5.92276        -3.01901        -4.00244
LJ           3.39609        -5.69386        -6.03998
LJ          -3.92079         1.93853       -0.153846
LJ           3.25447         4.46999         6.25898
LJ          -6.00708         4.97101        -6.43216
LJ          -1.10243        -1.18201        -4.48543
LJ          -5.90484      -0.0533734         1.17994
LJ          -2.37497        -4.66658         4.41546
LJ           6.44225         2.04317         3.63373
LJ           5.35939         6.15643        -1.13567
