108
#Comment!
LJ           1.00106        0.470129        -2.46214
LJ           4.16298        -1.13013         4.26695
LJ           3.81319        0.524599        0.214062
LJ           4.57537         2.23874        0.272887
LJ          -4.37667        -5.88637        -4.82574
LJ           4.00366         3.31194        0.727511
LJ           -2.9875       -0.448335         3.78175
LJ           4.20265        -1.85425        -4.16864
LJ           -2.5923         2.99243         2.25225
LJ          -3.60737        -0.50776        -5.92772
LJ          -2.18703        0.451501        -5.43849
LJ          -3.28484         3.86041         1.00651
LJ           1.27322        -6.16232       -0.642365
LJ          -3.65236        -2.50552       -0.939196
LJ          -1.72924         1.96578        -5.15795
LJ         -0.911155        -2.32945         3.19517
LJ          -1.07511        -3.08036        -6.43916
LJ         -0.669409         5.73595        -5.33734
LJ          -2.35308        -2.81995         -5.3952
LJ          -4.17935         5.76314         6.43898
LJ          -2.35217         1.00287        0.715821
LJ           3.56253         5.64564        0.900801
LJ           6.04791         1.25107         6.42632
LJ           1.07861        -3.81375         2.19563
LJ          -3.22916        -1.64487      0.00695137
LJ           6.26062         6.22512       -0.831333
LJ          -5.55583        -6.03495       -0.459595
LJ          -4.93403       -0.616364        -5.35391
LJ          0.670264         5.26796         1.27095
LJ           1.22782        -0.43137         3.51978
LJ           1.62237          4.3587        -4.28823
LJ           3.19447          6.1251       -0.181185
LJ            5.2345       -0.320311         4.60653
LJ           3.50822        -2.71149        -2.38829
LJ           5.27906         4.57807          1.8791
LJ        -0.0603745        -1.35805         -3.8262
LJ          -3.78883        -6.41159         5.04085
LJ          -3.77256       -0.108398          1.8895
LJ           -1.2803       -0.443578         5.25886
LJ          -5.52191          4.5747       -0.895994
LJ           5.65793        -2.86767         -2.4433
LJ           1.29615        -4.49168         4.20227
LJ        -0.0906842        -2.16033        -1.38763
LJ          -2.83206       -0.492346         2.31982
LJ           4.26025         3.27431         5.39343
LJ           5.88732        0.698736        0.294565
LJ          -5.06623        -3.36605        -2.90233
LJ          -3.45708        -1.12087         6.06002
LJ           3.27046        -1.44362         5.06322
LJ           4.85153         0.33205        -3.19129
LJ          -2.02018        -3.44669        0.426446
LJ          -2.73576         6.11998         -3.2011
LJ          -3.67186         6.07086        -2.69032
LJ           3.53258         4.86797        0.256899
LJ           1.93474          5.6623         -2.1842
LJ          -3.08958         5.96701         5.78784
LJ           4.51769         3.08178        -3.44679
LJ          -4.34979         4.53805        -2.46727
LJ           3.80482        -5.36103        0.523808
LJ          -3.11233        -5.62043       -0.623119
LJ          -2.35658       0.0210211         -6.3644
LJ          -2.95416         4.11684         1.87729
LJ          -5.57124         5.83437        -6.40879
LJ           4.66791         6.19245          1.0729
LJ           5.98564         6.23276         1.75102
LJ            3.2785          6.3104        -1.36132
LJ           4.04334        -3.30537       -0.239626
LJ           1.65545         2.72646        -4.85484
LJ            5.4842        -1.77359        -2.65565
LJ           2.33165         3.48995          2.5237
LJ          -1.13639         1.27651         1.34617
LJ          -3.36679        -1.13278         1.61317
LJ          -5.79913        -4.21764        -2.62262
LJ           -2.1752        -3.69797         5.56773
LJ          -4.92215         -3.4754        -3.85551
LJ           1.79649        -1.96681         -0.0844
LJ           4.02438          1.7986         5.51101
LJ          -1.87295        -1.95891         4.32326
LJ          -5.55235        -6.41741        -3.96273
LJ          -2.67613        -3.98519        -6.20004
LJ          0.575646       -0.636822        -5.35997
LJ           3.98995        -1.80915        -2.80338
LJ           3.49557        0.181176       -0.844189
LJ          -2.14117       -0.911682          4.7295
LJ           1.21567         5.05675        -5.94852
LJ          -3.78543       -0.585594        0.620875
LJ          -1.50482         1.33732         2.42042
LJ          -4.68304         4.44276        -6.09133
LJ           3.60532          -1.682        -1.52858
LJ           1.96451         5.64046         -0.1955
LJ          -5.50832          4.3475         4.33366
LJ           5.99435       -0.221514         -2.3873
LJ          -5.52658         4.83119        -4.51375
LJ           1.88054         1.45341        0.459405
LJ          -4.70321        -6.01838        -3.53266
LJ           4.49919        -2.29392        -1.76245
LJ          -3.02228        -1.53386         3.30036
LJ         -0.996432        -5.36114         4.57206
LJ         -0.887667        -4.32316        -4.89853
LJ           6.20309         4.60958        -1.16195
LJ           -1.7296        0.183016         1.24741
LJ           2.38756        0.297217       -0.363566
LJ            3.6603        0.844928        -4.06033
LJ          -1.06297        0.533082        0.511877
LJ          -6.20999         2.75658         1.65669
LJ           4.47075         3.95232         1.65613
LJ          -2.96294        -3.35864        -2.23509
LJ          -5.77163         1.47638         6.18641
