108
#Comment!
LJ           -0.8989          4.4682         1.45814
LJ         0.0986937         2.65229        -2.93792
LJ           5.53812        -5.44251        -1.72008
LJ           5.66396        -2.25227          5.0706
LJ           5.11497        -2.20093         4.35479
LJ            1.6249        0.404416         1.17589
LJ           3.42619         4.45536         2.62095
LJ          -1.75383        -2.31838        -2.63415
LJ           2.03263        -3.61038        0.931672
LJ           4.71397          3.1919        -6.41686
LJ          -4.83113        -2.13837        0.385625
LJ          -6.30125         5.23941        0.386018
LJ           3.05587         2.83901         1.18621
LJ           3.55381         3.24566         2.57803
LJ           6.04262         -1.7344        -6.36912
LJ           3.33019        -2.15324         2.33508
LJ           3.44797        -6.07971         -2.2003
LJ          -6.13635          6.0642        -2.24276
LJ          -6.09922        -1.11403        -2.09047
LJ          -4.47422        -6.04935        -1.73862
LJ          0.113992        -3.48144        -3.71963
LJ           5.88351        -4.16987         6.32763
LJ          -2.79622       -0.163232         2.95016
LJ           2.72731         5.43043         1.64985
LJ           4.25616        -2.63101         4.05354
LJ          -3.55108         3.67967         6.10806
LJ           2.52771        -2.81729        -6.12933
LJ          0.372545         2.19385        -2.30106
LJ           3.88634        -1.23865        0.409322
LJ          -5.82825         0.19392        -4.24636
LJ          -5.91312       -0.863915        -2.13821
LJ           4.18589        -5.11939        -4.59709
LJ           3.72657        -4.22236        -5.93778
LJ           1.63234        -2.82433          4.7542
LJ          -6.18187         4.47566       -0.606267
LJ           2.93807         4.68422        0.878731
LJ          -1.32149        -3.51755        0.209997
LJ           -4.6125         4.61373         2.83463
LJ         -0.256429        -5.01678         3.13591
LJ            4.3356         2.27111         1.95216
LJ           2.43115         5.73312         5.45954
LJ           5.34226        -3.57657        -2.14454
LJ         -0.888495       -0.911227        0.972778
LJ           4.28105        -3.31783        -4.53812
LJ           4.12636         6.08062         5.70454
LJ           1.59993        -4.38948        -1.05329
LJ           2.06264         3.43376        -5.44035
LJ           3.41611         5.81786        -5.86108
LJ           1.82322       -0.926834        -5.75801
LJ         -0.211234        -3.82595        -4.88747
LJ          -4.41265         1.45003        -3.31576
LJ           2.03481         4.31346         5.42232
LJ             2.742         4.75125        -1.90717
LJ            5.0275         5.65355        -3.08659
LJ          -2.09531         6.11567         2.93363
LJ          -4.09243        -1.87974        -4.59591
LJ          0.159316        -5.28013        -2.80079
LJ           6.28518         5.13149         5.10948
LJ         -0.752543        -5.64892         2.68923
LJ          -5.27936         4.73796        0.665879
LJ           2.27572          2.5362        -5.20423
LJ           -2.4014        0.591392       -0.821073
LJ           6.17576         1.77969        -2.63858
LJ           1.95508         3.86627        -1.31722
LJ          -4.59498        -1.67051        -2.85644
LJ           6.04549        -5.89673        0.655844
LJ            -2.457        -5.84871         3.16307
LJ           2.82853        -5.15263         6.32933
LJ          -6.28327        -2.69624         0.71997
LJ          -2.58842         -2.5347        0.756793
LJ          -4.75022       -0.724959         6.29892
LJ          -2.16803        0.224093        0.959746
LJ          0.224286         1.21886         1.34564
LJ           5.80967         1.64131         4.35349
LJ         -0.136609        -2.79332        -2.09632
LJ          -4.24609        -3.97075        0.405308
LJ           3.42611        -1.75144        -2.33643
LJ          -4.50185         6.17976       -0.135115
LJ          -2.28642        -2.75871         -2.2834
LJ          0.885814         4.72381         2.36511
LJ           1.73747        -6.42668       -0.637858
LJ          -6.22154         1.76135       -0.492863
LJ         -0.837435         4.33568        -4.29429
LJ          -1.90728         2.15478        -2.05244
LJ           5.97244        -6.34746        -6.28988
LJ         -0.340296         4.55098         2.61174
LJ           4.17697         1.00539          2.0829
LJ          -5.40906         2.77148         3.44042
LJ           1.64092       0.0242246        -3.54072
LJ          -4.53474         2.60725         1.05026
LJ           1.02409        -5.50811         -6.0021
LJ          -4.52067         1.74189        -5.77247
LJ        -0.0403638         3.05553         1.42634
LJ           5.03682       -0.521398        -6.20909
LJ          -2.08503         6.24285         4.04801
LJ           1.18456          4.3396        -1.88684
LJ          -5.54887       -0.960493         3.54186
LJ          0.705891         1.29266        -2.24099
LJ           2.15121         4.19161        -3.80547
LJ           1.37054         5.23273         4.29021
LJ          -4.83143      -0.0547325        -6.24564
LJ           5.01735        -4.37881     -0.00640115
LJ          -3.03046        -4.93856         5.65193
LJ          0.667342        -2.12232         5.10334
LJ          -5.79906        -5.02538        -3.62721
LJ          -3.68389         5.14292        -2.35172
LJ         -0.347943        -1.16257       -0.419698
LJ           -3.3342        -1.56732        -1.70469
