108
#Comment!
LJ          0.154761        0.242867        -3.30374
LJ           6.44292        0.162035         -5.8644
LJ           5.93995       -0.209748        0.174812
LJ           4.32621         4.79687         -3.9674
LJ            4.9563          1.9016        -2.01889
LJ            6.3633         1.64445         1.05691
LJ           -1.1905        -1.42944         1.33696
LJ           2.24392       -0.689198          -3.841
LJ          -4.17701         6.21124          4.3549
LJ          -2.66358        -4.06065        -4.86959
LJ           1.06641         3.18279        -5.64606
LJ           -4.7406         5.56007        -1.20566
LJ           3.46746        -2.88788        0.111277
LJ         -0.232301        -5.70868        -5.24914
LJ         -0.658933         4.98126        -3.67737
LJ          -3.65353        0.880909         2.99247
LJ          -6.24853        -1.33866        -4.82136
LJ         0.0750901        -1.89651         5.52422
LJ          -2.81228        -1.04962         -2.8868
LJ           5.42953        -1.56851         2.58338
LJ          -1.43658        -4.03206        -5.30637
LJ            2.3612        -5.35115         3.40801
LJ           5.09741         2.91116          3.1745
LJ          -1.95055         5.17567         3.00181
LJ          -5.67538        0.775891         2.93018
LJ           -5.5319        -2.67762         3.67716
LJ           6.28984        -3.41693         3.23368
LJ          -3.99995         2.06812         4.86697
LJ           1.52252         2.14902         3.32508
LJ          0.556515        -3.98569        0.408894
LJ          0.961661         5.00984        -4.17359
LJ           3.06542        -4.78908         4.36045
LJ           5.28882         3.59633         5.31622
LJ          0.286948        -5.81725        -4.32767
LJ           6.00463        0.763616         2.66278
LJ           2.36367       -0.897885        0.137993
LJ          -2.17854        -5.28288        -6.25744
LJ         -0.285366       -0.883409          1.7171
LJ          -2.41866       -0.900881         1.57346
LJ          -5.65503         2.50957       -0.247228
LJ           3.53684        -1.18423        -1.06709
LJ           5.45138        -3.05404          5.8734
LJ          -3.95403         1.94899        -1.24307
LJ          -1.82797        -2.13191         2.20464
LJ          0.524358        -1.75565         2.00626
LJ          -4.68662         1.83155         3.84049
LJ           5.60739        -1.24145        -2.57191
LJ           -3.2636        -2.54005        -3.70475
LJ           3.80058        -4.28341        -5.78021
LJ           4.53382      -0.0358629         1.36235
LJ          -3.90581       -0.768622         2.23158
LJ         -0.305695         2.64515        -4.79535
LJ           6.12175        -2.62246          2.2157
LJ             4.188         2.07631        0.263423
LJ         -0.318878         4.56583        -2.30406
LJ          -1.58431        -3.78873         6.30081
LJ          -3.93929         1.38077         -2.5352
LJ          -5.46453         2.37186         -3.8131
LJ          -5.00395        -6.36985         3.40956
LJ           3.64371        -1.31032       0.0405106
LJ          -4.35464        -3.40824         5.43471
LJ          -2.27308         5.26711         5.26708
LJ           5.15922        0.321997        -3.80409
LJ          -5.42289         2.04373        0.669784
LJ          -5.27196         4.09535       -0.339725
LJ            2.9635        -5.33292        -6.32022
LJ          -4.42519         1.49968      -0.0827086
LJ           2.80334         2.53645          3.5635
LJ           3.26696        -2.08286        -1.78806
LJ           3.90486          2.7907         2.28342
LJ          -1.35348        0.623002         2.38882
LJ           1.29778        -0.83921          0.1109
LJ          -2.23234        -3.15779        -1.23271
LJ          -2.19805        -1.77025         1.09132
LJ          -5.79208         5.23627         4.70618
LJ           5.41096         2.59763         1.32272
LJ         -0.157024        -5.73724        -1.83851
LJ          -1.03312          -2.475         3.03288
LJ            3.3161         6.04645        -5.24236
LJ          -2.24355        -3.43732         2.81606
LJ          0.271895       -0.860712         4.74841
LJ           3.70745        -3.37335        -2.06048
LJ           1.90449       -0.614986       -0.988823
LJ         -0.818669         -1.6615         2.40152
LJ           5.38316        -5.41075        -3.81865
LJ          -6.07206         1.29252         1.97044
LJ          0.254396        0.834779         2.68762
LJ         -0.606233       -0.879402        -3.19118
LJ           4.48102        -2.03085        -2.45187
LJ          0.365685        -5.76376         5.64579
LJ             4.485         6.44666         4.57639
LJ           6.16806        0.232716        -1.34024
LJ           2.81597         3.33552        -2.70817
LJ           2.99892         2.97372       -0.175637
LJ          -5.95199         4.08819        -1.33205
LJ            4.0464        -2.40747        -1.12325
LJ          -5.56104        0.379363         1.21887
LJ          -4.19375         5.11876        -2.61952
LJ         -0.527756        -2.99338       -0.347958
LJ          -4.94839         3.54102         -2.0001
LJ         -0.128461         1.32554         1.67638
LJ           2.52926        -1.52367       -0.747228
LJ           2.20563       -0.232241         6.16779
LJ         -0.490026         1.42526        0.597149
LJ           4.43168        0.837095         2.33177
LJ            3.7997         1.98857         1.60264
LJ          -6.06459       -0.496399        -2.78907
LJ           4.55706         1.76447          3.2209
