108
#Comment!
LJ           1.30792         2.13742        -4.49258
LJ          -5.95055        0.568388         -4.9286
LJ           6.36747       -0.240177      -0.0109687
LJ            3.2372         5.57569        -5.67272
LJ           3.41622       -0.347364        -1.56749
LJ           6.44523         3.01428         1.30801
LJ         -0.541691        -1.85442        0.897157
LJ           1.45677       -0.355624        -3.80468
LJ          -3.76379        -5.80311          5.6867
LJ           -1.2823        -4.32585        -5.09552
LJ           1.81895         3.94161        -5.53066
LJ          -5.81465         6.20358        -1.48786
LJ            4.7838         -1.5385      0.00689586
LJ          0.620827         6.10305        -5.10103
LJ        -0.0394665         4.64612        -2.92846
LJ          -4.61833         2.21267         1.91349
LJ           4.80117        -1.35003        -4.55755
LJ        -0.0371128        -1.73673         5.83045
LJ          -3.01991       -0.952777        -2.14943
LJ           4.17193        -0.94887         1.49476
LJ         -0.784231        -3.26855        -4.38811
LJ           2.16137        -4.10983         4.65198
LJ           4.56839         2.79893         2.91418
LJ          -3.13904         3.44435         3.70401
LJ          -5.81617        0.479522          3.5581
LJ          -5.86271        -1.50368         4.62512
LJ          -6.19108        -2.53944         5.04168
LJ          -3.24392          3.2492         4.74609
LJ           2.99252         2.11508         4.27793
LJ           2.39924         6.00894        0.649407
LJ          0.531739         5.25095        -4.17199
LJ           2.59374        -4.19479         5.62368
LJ            5.3015         2.27048         5.96893
LJ         -0.794785         5.96168         -4.7077
LJ            5.5496        -1.57256         4.79302
LJ           3.47197       -0.668347      0.00364309
LJ          -2.78264          6.0561         5.46489
LJ          0.327607       -0.859976         1.25381
LJ          -1.96491        0.925787         1.35159
LJ          -5.51765         1.33529       -0.986431
LJ           3.06629        -1.11402        -1.11946
LJ           -6.2255        -2.63368         6.42189
LJ           -5.0859         3.40309       -0.184909
LJ          -1.36583         -2.8866         1.25087
LJ          0.958347        -2.48187        0.532379
LJ          -4.84771         1.97954         3.46607
LJ           4.24519       -0.447213        -2.46434
LJ          -2.75205        -2.66572        -2.27515
LJ           4.81494         -3.6843        -5.12179
LJ           5.25225        0.241013       -0.467568
LJ          -5.19939        0.445742         2.54479
LJ           1.16521         2.04477        -5.75702
LJ           4.93265       -0.582268         3.82907
LJ           5.75006          1.3662       -0.124072
LJ          -1.17524         4.04352        -2.58517
LJ           -1.2107        -3.11929         6.05848
LJ          -2.87636        0.395476        -3.52907
LJ          -5.98603         1.68995        -3.86196
LJ          -4.41304        -5.47721         2.43692
LJ           5.55447        -0.88674       -0.542603
LJ          -4.73772        -4.70276         5.19964
LJ          -2.21049         5.18292         6.27721
LJ           4.71057        -2.02481        -3.30634
LJ          -4.47666        0.935035         1.09476
LJ          -4.04914         3.69059        0.289491
LJ           2.05911        -6.04858         4.84518
LJ          -3.80537       -0.649325       -0.909639
LJ           2.45446         1.97189         2.26286
LJ           2.97913        -2.45555        -1.28016
LJ           3.14085         3.46804         2.45386
LJ          -1.65945        0.923195         2.70145
LJ           1.39168        -1.34092       0.0902543
LJ          -1.87015        -2.87835       -0.159984
LJ          -1.67074        -1.89082        0.641307
LJ           -5.2615          4.3285         4.53354
LJ          -6.35575         4.63443         0.98638
LJ          -1.91781         6.29033        -4.30835
LJ          -1.80032        -2.46024         2.57478
LJ           1.86512          6.2444        -5.49371
LJ         -0.966133        -3.57476          2.1454
LJ          0.282339         0.67894          4.4985
LJ           3.73303        -2.68912        -2.01552
LJ           1.80229        -1.75988         -1.5817
LJ         -0.794988        -2.25121         2.01982
LJ           6.24545        -4.92207        -3.05534
LJ          -5.79048        0.988312         1.67937
LJ          0.819057        0.806536         2.16991
LJ         -0.676664       -0.570483        -2.53932
LJ           4.68938         -1.1959        -1.06239
LJ         0.0722808        -4.64315         5.55694
LJ           2.97817        -4.60372         4.08893
LJ           6.25212         0.51913       -0.854554
LJ           2.15249         2.31168        -2.22443
LJ           3.11133         3.73079       0.0682432
LJ          -6.29917         3.97568        -1.04396
LJ           3.97111        -2.01249       -0.791572
LJ          -5.55413        0.839162        0.329695
LJ          -4.87152         3.85315        -1.07243
LJ         -0.796059        -2.44576        -1.18845
LJ          -4.51544         3.44945        -2.33543
LJ          -1.08297         0.82744         1.81289
LJ           1.79897        -2.52187      -0.0675228
LJ           1.70648       -0.591436         5.27148
LJ         -0.406522         1.25344        0.848962
LJ           4.25285          0.5146         1.93213
LJ           4.06758         1.59639         1.61266
LJ           5.44257        0.129568        -2.76672
LJ           4.29213         1.64719         2.62386
