108
#Comment!
LJ          -6.34542          4.7288       -0.850186
LJ          -2.84924         3.95602        -2.53829
LJ           4.21308        -2.25055        -4.10665
LJ           -3.2985         2.17349        -2.89331
LJ            6.2191        -5.15502         2.16686
LJ           4.92596        -3.33201        -6.18724
LJ          -1.40934         1.12918        -1.65855
LJ          -3.61648         2.32579         5.42904
LJ           4.05042        -3.96073        0.447648
LJ          -2.63074         -5.8776        -4.44782
LJ         -0.544717       -0.674495         3.27576
LJ         -0.491039        -3.53993        0.866135
LJ           -2.1151        -6.19379         2.82935
LJ          -0.87338        -1.59554        -5.59284
LJ           3.14739         6.36306          3.4581
LJ           6.42511         3.38202         5.37219
LJ         0.0679674        -3.92013         3.98187
LJ           5.12275         3.08345         5.43089
LJ          -1.41834       -0.708767         5.56125
LJ           -3.4528        -5.05718        -1.40524
LJ          -4.96377        -1.74063        -3.98039
LJ          -3.64971         1.03067       -0.226866
LJ           3.83509        0.929684         1.00468
LJ           0.88727         2.47042       0.0948086
LJ          -5.49588        -3.43864        -3.15341
LJ          0.339999        -3.31701        -4.81587
LJ           3.25018        -2.62598       -0.300784
LJ           4.29935        -3.60396        -4.06501
LJ          0.764094        -3.38194        -6.31921
LJ           4.52022        -0.15404         5.31251
LJ         -0.752129         3.86122        -3.75267
LJ          -3.61202         -3.2346        -3.50159
LJ           2.73638        -2.07333         2.78804
LJ          -1.60711        -5.44175        -4.16472
LJ         -0.937212        0.215287        0.414267
LJ          -3.14317         2.98253        -1.01568
LJ          0.512129         5.01882        -3.17482
LJ          -1.37028        -5.17221        -4.43271
LJ           5.63888         3.91203         5.24472
LJ           -2.6929       -0.609641        -3.13805
LJ          0.396371        -3.67695         6.43552
LJ          0.941024         5.57406        -2.21692
LJ           3.45902       -0.675043         1.56334
LJ           6.33756        -4.01157        -5.39978
LJ            1.3533        -1.95658         4.06497
LJ           -4.9251        -5.19904        -3.80966
LJ          -4.54593         3.73651        0.731292
LJ           -1.9967       -0.184381        -2.70554
LJ          -2.56554         -1.4469        -4.28987
LJ           1.47821         -2.7085        -2.76703
LJ          -1.47476        0.609191          1.8376
LJ           3.00015        -5.46814        -3.06705
LJ          0.105279        0.507034         4.89277
LJ           1.99676        -2.38004         5.87823
LJ          -4.27268        -0.17971        0.763337
LJ           4.00337         2.30845         5.53104
LJ          -2.83416         4.79509         5.83036
LJ          -3.76492         5.21666        -5.31714
LJ           3.53526        -5.35669         2.91308
LJ           3.16363        -5.21169        -2.99532
LJ            4.1411         1.20395        -1.11681
LJ          -1.69886        0.962423         4.21163
LJ           6.15981         -6.3661         1.59056
LJ           1.70048         2.23182          2.4262
LJ          -0.43147       -0.698647        -4.29809
LJ          -5.60491         1.16851          4.9078
LJ            1.1473        -3.96035         4.42169
LJ           5.92931        -1.19874         -1.4402
LJ          -1.40788       -0.868187         5.97923
LJ            5.2828         5.93686        -4.15087
LJ         -0.361214         -3.4187         3.69618
LJ           2.60812        -3.87705        -2.94931
LJ         -0.824352        -1.36675         2.80518
LJ          0.156708         5.72161          0.9577
LJ           6.20066         1.17935         5.62276
LJ         -0.270841         3.62742        -5.78425
LJ          -1.08371        0.189961        -1.71356
LJ           2.54902        0.870302        0.700708
LJ          -4.89009        -3.56813         3.82171
LJ          -3.53199         5.21044         4.82053
LJ           1.51445         1.95174         2.90602
LJ           -2.9207        -5.68486         6.37442
LJ           3.21399        -3.05329        -1.49687
LJ           5.44085         3.02773        0.259817
LJ          -1.14043         1.16276        0.406554
LJ          -6.14135         1.78993         3.53004
LJ          -2.30165       -0.643065         6.09217
LJ          -2.83897        -3.36906         3.28489
LJ          -4.57801        -5.41298         4.23172
LJ          -2.32882        -2.93465        -5.97859
LJ          -1.04636         4.19185         -6.4156
LJ          -1.88694        -2.64251         4.27876
LJ          -3.71615         4.18642        -5.92757
LJ          -4.55267        -4.85726        -2.52676
LJ           -3.4611       -0.149921         2.06284
LJ           -4.5561         5.51144        0.962332
LJ         -0.114735        -5.66806         3.14465
LJ         -0.105433         5.01176        -2.19941
LJ            5.8638         4.04973         5.89941
LJ          -1.65331         1.54311         3.56553
LJ           1.82154        -1.58535         5.80109
LJ          -2.74373         -3.2227        -3.08518
LJ           -4.6247        -6.39179         0.47469
LJ         -0.478998         6.17978         6.16286
LJ            3.9249       -0.416514        -5.40189
LJ          -2.99765          5.7594        0.709826
LJ           2.19038           2.087        0.329597
LJ         -0.584334         -3.9324         3.60916
