108
#Comment!
LJ           5.05637        -5.18481        -4.58802
LJ          -3.78507        -3.52214        -1.89046
LJ         -0.365381        0.333323        -5.00936
LJ           3.62527         4.44885       -0.191979
LJ          -5.27098         4.00808        -3.73427
LJ          -3.73628         3.95569         5.02521
LJ           4.14863         5.80718        -3.30699
LJ         -0.260129        -6.15398        -5.99245
LJ          -5.29047         5.36394        -2.28226
LJ          -5.86534        -5.90906          6.2262
LJ          -3.07285       -0.370818        -3.10112
LJ          -1.21922       -0.452372        0.656352
LJ           5.62457         1.45836        -3.19001
LJ           3.25708         1.33102        -2.05183
LJ          -3.94857        -1.36654         3.43728
LJ          -1.95834         5.35045        -3.25248
LJ          -2.75698         -1.8766         3.67385
LJ          -3.99031         5.22251        -3.14234
LJ          0.691062         4.60584          -2.538
LJ           3.19648          6.0296          6.4301
LJ           -4.7702         1.08036        -2.94203
LJ           2.43418        -2.87307         3.33462
LJ          -4.45363         4.41041        0.707063
LJ         -0.187451        0.743301         5.11847
LJ          -2.00959        -4.36895        -1.57186
LJ           4.49783         2.24056         1.01469
LJ           6.14663         1.86444        -2.89771
LJ          -3.32704        -1.83054        -2.57978
LJ         -0.785473         4.18845         4.64438
LJ           -5.4333         -1.8657         6.30855
LJ          -1.94363       -0.333541        -3.73638
LJ           6.21948        0.533812         2.28726
LJ         -0.989279        0.310991        -3.40649
LJ           4.10335        -5.50495       -0.613999
LJ            1.7659         4.41027          1.9963
LJ          -6.17426         2.44507        -2.43342
LJ          -1.98117        -4.84767        -4.77289
LJ          -4.73757         4.59379        -3.21215
LJ          -1.59788       -0.671235        -3.51834
LJ           2.41005         1.36902        0.470162
LJ          -1.01645        -4.82298       -0.382104
LJ          -1.65521        -3.40617         4.32103
LJ          0.920514        -2.53154         5.62515
LJ          -2.23212         -6.2181        -4.72736
LJ            2.1133         4.48589         3.79684
LJ           6.23552         5.67803        -1.85228
LJ          -5.49297        -3.64187        0.677939
LJ           2.55469       -0.260676         4.02391
LJ           2.66274       -0.660051         6.03661
LJ          -3.30018         3.31827        -6.20468
LJ          -5.93316         3.70226         3.72346
LJ           1.18904        0.630869         3.31858
LJ          -3.25038        -2.82576          6.2301
LJ           5.49899        -4.89471         1.40127
LJ       -0.00922514        -2.11014        -5.95218
LJ         -0.630692         -5.8819         4.81371
LJ           3.02682        0.812142          4.0662
LJ          -4.54855         2.36078        -1.04577
LJ          -3.53827         2.12414        -5.26475
LJ          -2.06572        -4.00535         6.42852
LJ            1.4976         4.49718         6.20939
LJ           3.37511        -5.37239         4.41398
LJ          -5.87247        0.772912        -5.68207
LJ           2.73036         4.58153        -5.15271
LJ          -1.26605        -4.84977         -5.9273
LJ          0.513408        -4.62951         6.38179
LJ         -0.126624        0.190513        0.206043
LJ          -1.29959        -5.06004        -2.36953
LJ           2.18195         1.30053        -0.97539
LJ           6.22312        0.742792          3.6554
LJ          -5.13718        -2.27338         2.74923
LJ          -1.25666        -1.48455         -4.6195
LJ         -0.975663         5.06794       -0.307381
LJ          -4.78753        -5.36397          1.6929
LJ            5.6141         3.42946        0.618738
LJ            -3.696         3.80671        -4.31713
LJ           5.41297        -3.11574         -1.9821
LJ          -3.98879        -1.48556        -1.82203
LJ         -0.390455        -4.61659        -1.19647
LJ           4.41267         6.17032        -4.89294
LJ           6.28551         1.45627         3.90023
LJ           1.34504       -0.491871         3.08074
LJ           0.91409        -2.03279        -5.27606
LJ         -0.395222        -2.29003       -0.435593
LJ           1.45637        -3.13172         1.36005
LJ           3.24604        -5.06884        -5.51782
LJ           4.60467         2.79257         4.05318
LJ        -0.0900854         6.11935        -4.33938
LJ            0.4558        0.763126        0.335899
LJ         -0.460291        -2.87548        -5.84433
LJ           2.92944          4.0792         5.48122
LJ           3.83671         4.85132        -5.71661
LJ          -4.15962         3.41339        -1.60853
LJ            4.8874        -6.23467         2.19985
LJ          -1.25367        -4.10336        -3.22422
LJ          -2.85083        0.692835         4.29681
LJ          -6.38305        -3.47697         2.50373
LJ          -2.41524        -2.35453          4.9235
LJ           -3.0412         1.51499       -0.886231
LJ           2.22892        -2.26708         5.39898
LJ          -2.70872       -0.240032       -0.717687
LJ          -4.89443         1.07857         5.31121
LJ           5.09173        -2.72735         2.55221
LJ          -4.84985        -3.40795         4.15927
LJ           6.44914         4.30284        0.449219
LJ          -1.86022        -3.74936         3.65415
LJ          -5.61632        -5.66911         6.45178
LJ           6.23628         1.54749        -5.45229
