108
#Comment!
LJ          -1.50699         0.72507         4.03901
LJ          -4.88171          -5.202       -0.789711
LJ           3.83555         3.43436       -0.849047
LJ           2.52162         2.47817        -5.18277
LJ           -2.5739        -1.32662        -6.00863
LJ          -2.14691          4.7537        -4.71594
LJ           1.93199        -5.42115         2.79968
LJ           5.30065         4.72404         3.36798
LJ          -2.31192         5.15889         6.00742
LJ          -6.09066        -5.71181         3.77561
LJ          -6.44056         2.65009         4.12631
LJ          0.268523        -1.90553         2.37351
LJ           1.68036         4.80601        -2.51978
LJ           2.63756        -1.57724         3.61959
LJ          -3.08457        -3.79528        -4.19082
LJ          -4.07775         2.82187        -0.66947
LJ           4.59258         5.51269         6.38214
LJ           1.92827        -5.82065        -2.13645
LJ         -0.794201        -1.66759        -4.14527
LJ           1.11368        -6.16522         4.29776
LJ            5.6526         4.90911         6.31663
LJ           4.17198         1.24518         3.27306
LJ           1.26096         1.95192         2.36995
LJ          -1.07455          1.0339         2.80802
LJ          -4.26941        0.742594       -0.851614
LJ          -3.20474         2.94085        -3.29911
LJ           4.67257        -1.17625         3.36356
LJ         -0.400271        -1.82984        -5.64573
LJ          0.244041        -2.74022          6.3282
LJ          -4.13862        -2.14206        -3.95849
LJ            2.8407         1.81458         3.25262
LJ           3.65224         4.32817        0.381069
LJ          -4.79746         1.87201          1.9708
LJ           2.98755        0.632364        -3.95324
LJ            1.2821         -3.0052         1.67085
LJ           4.02254        -5.63799        -3.99344
LJ         -0.517282        0.820941        -2.88254
LJ         -0.690927          5.3792         3.88523
LJ           3.44659        -3.88362        -4.64674
LJ           6.07954        -3.23013        -4.92747
LJ          -1.17605         5.26532        -4.99664
LJ           3.20286         5.38111          5.9439
LJ          -2.63425         5.59111         1.34001
LJ           4.38898        -1.45031        -3.47982
LJ            4.9101        -5.48282        -2.97806
LJ          -1.50414         3.78239        -4.11654
LJ          -2.14987        0.514359         2.26697
LJ           5.77007         0.38348       -0.986887
LJ          -1.61511         5.10668         4.08109
LJ           5.18879         4.40111          3.9535
LJ           4.95903         1.75299          1.7583
LJ          -4.80787         3.31379        -1.14064
LJ            3.3065         4.01597         2.03382
LJ          -3.86885        -2.44091         1.95593
LJ           1.30848         0.99786        -1.06892
LJ          -2.49672       -0.380549        -4.12206
LJ          -4.77576          2.9467         6.31318
LJ         -0.838589        0.450397        -4.55438
LJ          -3.02318         -1.7101       -0.819564
LJ           2.74497       -0.930091         3.28969
LJ          -1.90218        -3.51494          3.9723
LJ          -5.04027         4.44725        -6.02412
LJ         0.0954343        -5.67066         1.66422
LJ           -4.5419        -2.43544          5.5684
LJ           3.35163        -5.95394       0.0944599
LJ           5.20471        -1.63539        -4.65107
LJ           3.35388         6.05749       -0.194792
LJ           5.71123         4.75314        -6.34035
LJ          -0.65476        -1.68898        -6.30188
LJ           5.58423       -0.764084          1.5008
LJ          -2.47907        -3.44883        -0.51635
LJ          -2.79539         2.87426        -5.43536
LJ           1.39739         3.83831        -5.89113
LJ           2.98875        -5.85998         4.83785
LJ          -3.84048         0.33085         3.54905
LJ            5.4374        -0.42575        -4.72112
LJ          -6.00847         3.60898        -3.65866
LJ         -0.506787         5.64573       -0.830278
LJ           4.47831         3.20017        -5.39574
LJ          -6.11634          2.8438        -4.20625
LJ          0.236902        -1.79756         2.10022
LJ          -6.03647        -4.21218        0.556754
LJ          -2.88473        -3.80554        -5.72087
LJ          -1.07533         4.49466         3.94022
LJ           2.14986         3.35838       -0.195649
LJ         -0.671654        -3.39223         4.84974
LJ          0.997063        -2.74429         1.47604
LJ           4.07663         6.17379         1.90294
LJ            1.4302         4.27473         5.70052
LJ          0.437312        -6.35889       -0.193152
LJ           1.42971        -6.37912         2.66833
LJ          -5.13403        -1.69335        -5.45301
LJ           6.06036          5.0774          -2.126
LJ          -3.74706        -3.01638        -1.29089
LJ           1.18027         -4.0886        -2.71222
LJ            3.5702        -2.97278         1.50256
LJ          -2.63388        -2.14324         3.40693
LJ           1.15429        -1.79388        0.657144
LJ           6.16628          3.8432         -2.5334
LJ         -0.218191        -2.16809        0.646295
LJ          -2.15903        -5.61963         5.07197
LJ          -2.62035        -3.72797         4.13233
LJ           3.99532        -4.78067         6.43481
LJ          -6.31035        -5.87437          2.6629
LJ          -1.70927        -2.55008        -6.20134
LJ          0.703277        -0.97834        -3.70553
LJ           6.10671        -4.18941         4.83679
LJ          0.258855         2.82551          2.4746
