108
#Comment!
LJ           1.65803        0.076198        -3.21823
LJ           4.88309        -1.21363        0.400872
LJ           1.78895         -1.0978         1.45951
LJ           5.09173          4.2077         2.14983
LJ          -2.52306        -4.06728         4.73874
LJ           3.15292         6.07289        0.747739
LJ          -1.84093        -1.18271         5.01364
LJ           5.10139        -1.86927        -3.27202
LJ          0.661176        -6.04255         1.05745
LJ          -4.62845       -0.162091        -5.62251
LJ          -5.40734       -0.830775        -5.85116
LJ          -3.99368        0.837851        -1.40068
LJ          0.639498         3.37277        -1.88524
LJ          -5.37026         1.83144         1.07797
LJ          -2.06187        0.619299        -5.63272
LJ         -0.604169        -4.57948        0.736983
LJ           1.35273        -5.23338         5.90811
LJ          -1.41863         1.65384        -4.19463
LJ          -4.21072         -2.3013         4.84961
LJ          -3.21819       0.0529117        -4.51582
LJ          -2.05367        0.133035         2.63933
LJ           4.39752         6.28055         1.50641
LJ          -5.42863        0.687861        -3.92357
LJ           1.27954        -5.43595         3.68259
LJ          -1.91318        -4.36519         1.62282
LJ           5.33709        -4.48416        -3.83201
LJ          -5.14445          3.5718        -2.79029
LJ          -6.18362        -2.11684        -3.84778
LJ           1.33066        -4.09874        0.243333
LJ           1.78646       -0.313462         5.79326
LJ            2.0939         3.74006        -3.35512
LJ           4.57212        -5.76424       -0.755717
LJ           6.05265        -2.64453         4.27171
LJ           3.54986        -1.72306       -0.573398
LJ           4.69933         5.25858        0.723657
LJ          0.100378       -0.788351         6.20039
LJ         -0.693542         5.81675         3.82449
LJ          -4.48806      -0.0416534         2.20071
LJ          -3.32641        -1.43247         6.33223
LJ           6.27721         4.72908       -0.329669
LJ           1.29814        -4.21567        -4.44907
LJ          -2.97823        -6.32496         5.15457
LJ          0.263665        -4.61676        -4.10793
LJ          -5.31332        0.493953         1.53022
LJ          -4.54557        -5.42608        -4.72599
LJ           5.16304         2.73598        0.962297
LJ          -5.76994        -2.75192        0.640566
LJ          -2.08171         1.36945         6.26729
LJ          0.115074        0.016735         4.94872
LJ           6.15197        -2.62563        -3.19977
LJ         -0.381725        -4.12381       -0.705584
LJ          -1.54172        -4.50214        -2.02013
LJ          -1.04096         1.09609        -1.80676
LJ           3.23423         5.87432        -1.06318
LJ           3.95722        -5.72852        -3.33315
LJ           5.97156         4.49929         5.13162
LJ           1.05221         3.73829        -4.66859
LJ          -3.56316         5.89564        -1.12204
LJ          0.899902        -2.61057        0.780556
LJ           5.85968         3.66834       -0.855298
LJ           1.12672       0.0410199         3.70115
LJ          -3.41392         4.31041          4.5795
LJ          -5.90238         4.97225         5.61442
LJ           3.52825         6.00545         2.38704
LJ           6.44385        -4.08439         3.61701
LJ           3.52169        -4.78905        -3.60756
LJ           4.42074        -1.67027         -2.2903
LJ          0.689709         1.83559        -1.42127
LJ           5.47589        -1.23436         -2.3677
LJ         -0.330933         4.27465         4.12824
LJ          -3.52703        -0.21101         1.60415
LJ          -5.40599        -0.80886         5.17503
LJ          -6.41781        -1.61261       -0.415401
LJ          0.952451         -5.1278        -5.47296
LJ          -3.00475       -0.746242         -3.8062
LJ           2.83907         1.99448        -4.20102
LJ          -5.42392        -4.89883        -2.22155
LJ         -0.577502         -1.4453         5.11502
LJ          -3.28909        -6.18911        -4.84122
LJ         -0.669166        -3.25982        -5.67092
LJ          -1.22005        -1.95256        -2.43069
LJ           6.29935       -0.484847        -2.79324
LJ           3.18525         2.60636        -3.14773
LJ           -3.5219       -0.311723          4.2248
LJ          -2.04126         3.88385         5.00844
LJ          -3.72787       -0.502327       -0.878011
LJ          -2.83475       -0.985131         1.97628
LJ           5.59034        0.531537         4.02157
LJ           3.90281       -0.211117        -1.24939
LJ          -0.19235         3.85811        -2.64374
LJ           -4.5855         3.12776         5.02122
LJ           5.04334       -0.309351        -2.81144
LJ          0.136901         4.92377         5.84208
LJ           2.44503         1.93915         3.23785
LJ          -2.93695        -5.79446        -6.01215
LJ           5.20894       -0.783363        -1.39594
LJ          -1.37599       -0.481839         3.90908
LJ         -0.200988        -2.59989        0.228468
LJ         -0.142789         6.16956         5.33491
LJ           3.35291          3.6793       -0.642242
LJ          -3.34498        0.866375         2.54078
LJ           4.17629      -0.0651122         0.75561
LJ           4.25759         1.31079        -1.67559
LJ          -3.24971       -0.583733        0.543547
LJ          -5.49218         4.18563        0.199859
LJ           4.05702         2.11683         3.36939
LJ          0.642494        -5.49597        -1.40364
LJ          -6.05132         1.00054         -4.8848
