108
#Comment!
LJ           1.74549         2.13476        -2.10198
LJ          -2.26792        -2.21501        -6.21756
LJ           4.16882         4.12003         1.46995
LJ           6.21319         5.00279        -4.43202
LJ           2.39961         1.99965          1.7679
LJ           2.55278        -4.40442         1.84432
LJ           5.09615       -0.858013        0.220704
LJ           5.40079         1.02458         2.28426
LJ         -0.424684        -0.53194        -3.64635
LJ         -0.365839         3.48353        0.798709
LJ           1.38328        -4.84107         4.87455
LJ         -0.923501        -2.98322         3.72748
LJ          -1.66412         3.09041        -1.74835
LJ          -5.74087         -5.4859         4.86337
LJ          -5.80413         6.06236        -5.43119
LJ          0.237992        -5.61263        -2.82943
LJ          -3.06392         1.53104      -0.0576418
LJ         -0.953552         5.70348         3.61607
LJ          -3.29938          4.3166         1.74007
LJ          -3.49847        -1.79411         4.46012
LJ          -1.56507        -4.87147         3.61498
LJ           6.18707        -2.70132        -4.13687
LJ          -4.08646        -5.69659       -0.602448
LJ          -6.29886         0.59303        -4.72674
LJ          -5.50291        0.861978        0.914329
LJ           2.83681         1.11037        0.595366
LJ          -5.07078       -0.709578      -0.0934316
LJ          -5.51869        -1.41702         5.80897
LJ          -6.38107        -1.31725        -3.07892
LJ           1.25083      0.00628861        -2.64474
LJ           2.88285          4.5122       -0.537843
LJ           -1.5924        -2.17479        -2.71175
LJ          -5.31776         -5.3344        -3.68154
LJ          -5.03618        -1.33986         4.42141
LJ           2.84833          1.0521         1.40104
LJ         -0.419033         3.96397         4.93887
LJ           2.95348          -4.688       -0.853712
LJ          -4.81241         1.84103        -5.49112
LJ           5.78817         2.85415        -3.30642
LJ           4.73658         0.48545         4.86434
LJ           5.24868         2.60296        0.109145
LJ          -3.31704        -5.15921         2.12352
LJ          -2.51178        -1.52567        -2.25082
LJ           4.71261          1.5854       -0.554197
LJ            4.0746        -1.63364          2.7242
LJ          -6.07149           5.825       -0.503898
LJ          -4.43215         3.82333         2.30856
LJ          0.982657         1.37962         4.57597
LJ            5.4319        -1.31571         4.62641
LJ           5.71584        -2.63697         -2.0464
LJ          0.953421       -0.319839        -5.94661
LJ         -0.913517        -4.37421       0.0639316
LJ          -4.48585        -4.70216       -0.856578
LJ           -1.3113         6.06373         1.68558
LJ          0.549439         2.18198       -0.918555
LJ           5.77164        -2.32562         2.80425
LJ          -1.99665       -0.675626         2.25592
LJ           3.64958        -4.42084         4.44214
LJ         0.0862485        -1.52429       -0.715866
LJ          -5.68798        -2.66723         2.05931
LJ           3.29056        -2.90435        -4.90338
LJ           6.39231         4.82442         4.52149
LJ           -4.1518        0.591511         2.85999
LJ          -5.38411       -0.925635         4.70253
LJ          -3.99742        -3.19349        -6.19855
LJ        -0.0908773        -3.98291        -1.26483
LJ           1.71259        -4.08093        -2.23919
LJ           2.27807         1.36957         -5.2932
LJ          0.637903        -3.11631        0.738245
LJ           1.14855        0.483097         2.55501
LJ           2.78043         1.69267      -0.0285125
LJ           6.29807         4.64106         1.95836
LJ           3.44634          -3.223       -0.302842
LJ           2.24848         4.05223         4.87309
LJ           5.93182        -4.27497         3.61179
LJ           2.32257        0.161939         2.33491
LJ          -3.53355       -0.870129        -3.05928
LJ          -1.94234        -5.79493        -5.41598
LJ          -6.45505        0.587982        -1.24721
LJ          -5.97322         1.97576       -0.666999
LJ        -0.0642734         2.52634         4.84771
LJ           6.35233         3.69185        0.450336
LJ          -2.55235        -1.23657        -4.14876
LJ          -2.54835         5.33421        -5.79405
LJ           2.20719        -2.44291        -3.24077
LJ          0.686361        -1.48634        0.219374
LJ          -1.95406         6.39131         1.69464
LJ          -3.50507        0.813848         6.06221
LJ          -3.73625          6.1359         4.63448
LJ          -5.65058        -3.10521        -2.93671
LJ             6.262         6.40009         6.36481
LJ          -3.80586         1.61256        -3.05048
LJ           3.62157        -2.34148        -4.78041
LJ           3.62397         4.87527        -5.04537
LJ           5.58633         1.25195         2.89687
LJ          -6.05822         3.10034        -5.15883
LJ           2.63307         1.15282         3.30511
LJ           3.05442       -0.277843         5.18227
LJ          0.111312        -3.95829        -5.41815
LJ          -2.70399        -4.92426        -3.96683
LJ         -0.833469         2.09316        -4.67881
LJ          -2.05238        -3.47784        -4.38616
LJ           1.55239         4.08112        -5.61788
LJ           5.34005        -3.10873       -0.247239
LJ          -4.94147           2.025       -0.670143
LJ           2.74854         5.25375       -0.916929
LJ          -2.23833         4.49106        -1.38245
LJ            3.1592         5.76744         5.16366
