108
#Comment!
LJ           0.99058        0.843573        -2.09146
LJ            5.5226       -0.643075         5.62702
LJ            4.9696        0.514405        0.189944
LJ           4.55211         3.60346       -0.932072
LJ          -5.66455         5.07434        -3.84557
LJ           4.80885         2.19411         1.32173
LJ          -2.44537       -0.524147         2.68228
LJ           3.58929        -1.27435        -3.72721
LJ          -3.75535         4.29006          3.0905
LJ          -3.57292        -2.86369        -4.96619
LJ         -0.575478          1.8003        -5.55954
LJ          -3.81546          4.7361      -0.0523476
LJ           2.33754        -4.70577       -0.291576
LJ          -1.89782         -4.5381        -2.71618
LJ         -0.897282         3.41987         -4.6508
LJ          -1.45346        -1.30479         4.43829
LJ          -2.97283         -1.4582        -5.31774
LJ         -0.201209        -4.65808        -6.24801
LJ          -2.29294         -1.9161        -4.27882
LJ          -4.47422        -3.71339          4.2615
LJ          -1.96807        -1.59191        -2.51031
LJ           3.55124         6.23929         2.29781
LJ           5.75377         1.65652         4.31253
LJ         0.0244181        -4.86341         1.94952
LJ          -5.06769        0.565532        0.673371
LJ          -5.66501        -5.38297         1.42454
LJ          -6.40202        -4.13013         1.22422
LJ          -4.17921        0.566383          6.2099
LJ          0.408159         3.10181         1.64713
LJ          0.521931       -0.963808         2.44934
LJ           1.38664         4.80353        -4.46898
LJ           3.05323        -5.86549         1.70157
LJ           4.75551         2.47261         4.81528
LJ           1.90529        -4.20132        -3.32232
LJ           5.57442           3.035         2.35763
LJ           1.57342        -1.12641        -0.57627
LJ          -3.00622         -5.9523         5.72419
LJ          -1.65771        -1.04662         1.92929
LJ          -1.80443       0.0934765         3.93977
LJ          -6.11432         4.24784        -1.86528
LJ            5.3813        -1.72169        -2.21187
LJ            3.2156         -3.8919         4.94561
LJ          -1.70153       -0.158107        -1.26225
LJ           -2.5397        -1.57236         2.76038
LJ           1.65331          0.3587         3.50829
LJ          -6.21396         1.14074         2.14579
LJ          -5.81485        -2.90603        -2.73243
LJ          -3.84555         -2.2228        -5.94038
LJ           3.53735        -2.83555         6.01128
LJ           4.36657        0.176697         5.77354
LJ          -2.86289        -2.64708         1.48339
LJ          -2.02933         4.35551        -3.74364
LJ          -5.22723        -4.85416       -0.641787
LJ           4.02954         3.88808        0.403639
LJ          0.844952         5.13907        -2.17422
LJ          -2.39084        -5.11153         6.16323
LJ           6.43055         2.80879        -2.42969
LJ           -4.6459         3.43759        -3.31932
LJ           5.73273         6.34699         2.45439
LJ       -0.00915414        -3.63411       -0.335789
LJ          -3.70589        -1.24234         5.84457
LJ          -2.25704         4.89046         3.57781
LJ           6.29165         4.28348        -3.90191
LJ           6.01273         3.96094        0.930661
LJ          -6.10332         5.52822        0.132219
LJ           3.56095         5.87938        -3.39014
LJ           5.80525         5.94638        0.887101
LJ             2.191         2.63898         5.95915
LJ           4.25189        -1.54883         -2.5798
LJ           4.04246         3.14727         1.72771
LJ           -1.0075          0.8264         1.40742
LJ          -0.77708       -0.964193         1.00809
LJ          -3.56444         -3.8709        -2.43663
LJ          -3.26399        -3.75594         3.46913
LJ          -5.75159        -5.64843        -6.45331
LJ           2.29575        -1.11133        0.519317
LJ           2.07538        -1.96393         2.26314
LJ          -1.49395        -2.02346         2.82397
LJ           5.72816         6.04224        -4.68697
LJ          -3.28373         -3.3693         4.62153
LJ          0.525175       -0.819153         5.48956
LJ           3.83895        -2.25607        -1.83915
LJ           3.21843        0.400263       -0.961332
LJ          -1.81295        -1.00428         3.41137
LJ           3.41824         6.36932        -5.09032
LJ          -4.42084       -0.428089         1.12405
LJ         -0.840405         1.48989         2.43422
LJ           -3.0135        -5.09913        -4.24554
LJ           3.56065        -3.11075        -2.68081
LJ           1.22409          6.3512         2.65465
LJ          -6.35937         5.14645         4.38539
LJ           5.61513        -0.58451        -1.67536
LJ           4.20888         5.07048        -3.52617
LJ           1.93933         1.72978       -0.822452
LJ          -6.37704         4.78134        -2.67633
LJ           4.67915        -1.72409        -1.34082
LJ          -4.63119       -0.525994         2.94554
LJ          -2.19691         6.14079        -5.60937
LJ          -1.30362         -3.3216        -2.92342
LJ          -5.35238         3.23567        -1.09362
LJ         0.0911082        0.524594          1.7975
LJ           2.41689       -0.519777         -1.0806
LJ           2.96682        0.351757        -5.26388
LJ         -0.419032         1.63656        0.985468
LJ           6.01258         1.86295         2.21764
LJ           3.23152          2.6123        0.701057
LJ          -4.50863        -1.84567        -2.63782
LJ           6.39955         1.57616         5.28259
