108
#Comment!
LJ            3.7545        -5.20191         1.93772
LJ          -1.67377         1.50421        -1.61785
LJ          -1.57288        -6.42679        0.107815
LJ          -2.36582         5.66537         1.72904
LJ          -3.97872          2.4618         6.38105
LJ          -3.98587         3.73814        -1.54913
LJ           -4.3454         -6.3545         6.15774
LJ          -3.48933       -0.451088         3.69101
LJ          -2.91596        -1.27129         1.05437
LJ          -2.87389        0.978897        -2.37973
LJ           6.11323         3.80415         4.43498
LJ          -2.40897         1.29941         -4.2685
LJ         -0.833036         2.72436         2.36576
LJ           3.69897            4.65        -4.44227
LJ          -5.72105         4.23425        -4.99604
LJ           2.85204        -4.20196         2.58108
LJ          -3.22089         -1.5158        -5.12928
LJ          -5.92576        -3.93872        -3.77375
LJ           5.46952         2.14377         5.94362
LJ          -5.04354         3.30568         1.30682
LJ          -4.12254          5.6932         3.15495
LJ           3.20246        0.610043         1.29977
LJ            -5.242         6.44379         1.49005
LJ           4.60665        -2.49378         -3.4982
LJ          -5.99589       -0.993505         -6.3149
LJ          -5.02998          1.5421         1.23971
LJ         0.0404234        -1.21512        -1.11022
LJ           3.06636        -3.55139         5.00463
LJ          -3.93805          5.3014         5.35674
LJ          -5.85695         3.51264          3.8935
LJ           2.28302         2.88676        -3.61865
LJ            1.7118        -6.22052        -2.57646
LJ          -2.25423         4.35511        -2.79075
LJ          -5.09843         3.06493         5.64538
LJ          -2.18632        -1.74126         1.47191
LJ          -5.82771        -1.53673        0.854905
LJ          -2.79764        -1.00415         4.78809
LJ           6.24068         2.68622         5.73309
LJ          0.359424        -4.63935        0.508064
LJ           -4.1527           -2.54        -5.30386
LJ           2.85535        0.807701         6.05931
LJ           1.86681         -6.1839       -0.155164
LJ          -5.62739         4.56418        -2.96939
LJ         -0.963293         3.25847         2.97867
LJ           -4.1868        -1.58919         3.70518
LJ          -2.13804         2.16615        -5.99311
LJ          -2.72291        -3.87466        -3.67092
LJ           3.31939         1.67332         5.12953
LJ           5.94724        -4.08964        -5.84819
LJ           2.87088        -6.40013       -0.811175
LJ          0.629436        -4.91428        0.208727
LJ          -4.04344          2.2879        -2.89805
LJ           1.32695         5.02617          5.4997
LJ           -2.0929        -3.33714        -6.16222
LJ          -3.84717         4.20558         1.51041
LJ          -4.97005       -0.241449          5.0257
LJ            5.8043          2.3796        -1.85697
LJ         0.0168971        0.809893        0.210431
LJ          -4.05217         5.55952       -0.228461
LJ          0.513265        -2.55081         5.75726
LJ           3.48835         5.38889        -2.15253
LJ          -1.41183         4.36633         1.09373
LJ          -3.88468        -4.88647          -5.931
LJ          -1.86969        -6.42888         5.16589
LJ           6.14454         3.19402        -3.19333
LJ          -6.45768        0.706704        -1.45816
LJ          -6.09203           5.783         -1.1083
LJ            1.4514        -6.06285         4.71234
LJ          0.472778         5.04699        -4.31286
LJ          -1.94102        -0.44637        -1.15988
LJ           3.54847        0.664757         1.13439
LJ           2.33202         6.35903        -4.36519
LJ          -3.36037        -2.58698         6.38115
LJ          -3.38445         1.84124        -4.71436
LJ          -4.01236         3.67217        -1.09756
LJ          -4.95174         2.43715         5.62502
LJ          -3.18655          1.3394         5.77568
LJ           1.21988        -5.68864         6.22141
LJ            3.3784         4.84121       -0.439926
LJ          -2.62236       -0.245335          2.4569
LJ          -2.41939         -5.9586         0.59769
LJ           2.22131       -0.885734       -0.211957
LJ           4.66076        -5.38378        -2.54012
LJ          -3.10632       -0.591941        -1.17751
LJ          -1.55822        -3.22155        -5.99709
LJ         0.0110996        0.417857        -4.90148
LJ           -4.2559        0.051629         3.62762
LJ          -6.44676        -4.26612         4.43132
LJ           2.47152        0.624296        -5.08182
LJ          -5.14719        -6.28576         3.21223
LJ           3.40022         6.29033         1.80245
LJ          -1.50126        -5.34791         5.92681
LJ            2.8984        -4.97728         3.36977
LJ          -2.96489         4.34007        -2.25799
LJ       -0.00545302        -2.71159         3.89148
LJ         -0.668444        0.359304        -3.66941
LJ           5.00248        -4.56026        -1.95366
LJ          0.103981          2.1799        -1.93401
LJ          0.987014         6.29745         1.82482
LJ          -3.64035         5.27892         2.81868
LJ            4.1755        0.810065         5.80263
LJ           -3.9978        -4.67659         2.95404
LJ           4.96615         1.21798         6.29093
LJ         -0.601638        -1.03925         4.73414
LJ           3.53466         1.32762        -2.98196
LJ           3.67716         1.65361        -1.16217
LJ          -1.67651        -2.84832         -1.6867
LJ            3.7073        -3.13417         2.58825
