108
#Comment!
LJ           3.98395        -6.31425       -0.122943
LJ         -0.842543        -5.64747       -0.518583
LJ          -5.63587        -6.37255         4.21152
LJ          -1.01677         3.05808         -4.6537
LJ          -4.90777         4.78961        -6.38008
LJ           2.54605        -1.48003         3.50667
LJ           1.83637        -0.51832        -4.31372
LJ        -0.0348901         5.27728        0.701948
LJ            2.0993        -1.55693        -5.03443
LJ         -0.780963         1.84915         5.72899
LJ          -6.09852        -2.98678          5.9766
LJ           5.44363        -3.09083        -3.26399
LJ           2.35736         4.98558        -5.59416
LJ           6.45752         4.67522        -6.45757
LJ           4.61016        -2.47648          5.6326
LJ           4.71774         3.49682         2.29984
LJ           1.67332         3.11696        -4.04704
LJ           5.54416        -6.45057         4.76773
LJ          -5.54322          1.9253         2.31157
LJ          -1.74796         2.27388         1.44539
LJ           2.35942         2.29865         1.11055
LJ           3.47984        -3.10193         -1.4155
LJ           4.25863        -3.95457        -5.37659
LJ          -1.10549        -1.66166         6.03954
LJ          0.430015        -5.53424        0.996415
LJ          0.437611        -1.62314        -1.63854
LJ           6.31499        0.845894         1.43599
LJ           1.31546         -4.0153         0.51084
LJ          -4.08151         2.97771        -1.11695
LJ           6.01344         4.91228        0.988733
LJ           5.07492         6.34932         5.84683
LJ           1.22625         1.62092       -0.871541
LJ         -0.424344        -5.07259        -3.07311
LJ           5.19688        -5.30805        0.568212
LJ          -5.54531         5.75053         4.57547
LJ           5.16192         3.42439        -2.45609
LJ           2.80648        -1.96254         4.40464
LJ          -1.32132        -4.22726        -5.89413
LJ          -5.01897         1.25278        -5.08818
LJ           4.09153        -5.14025         2.80669
LJ           2.90925         5.03251       -0.787469
LJ          -2.14662        0.687823        0.153285
LJ         -0.193133        -3.68638       -0.390425
LJ           1.46036        -5.17418         3.18468
LJ         -0.592278       -0.329682          4.8423
LJ          -6.22004        -1.31929         4.28763
LJ          -2.19533        0.452595        -6.13447
LJ          -4.00798         5.01491        -2.65588
LJ          -4.74434        -3.22222        -6.09991
LJ          -2.33666        0.833292        0.728069
LJ           1.59907         1.51412         5.83499
LJ          -5.34944         6.46164        -0.93425
LJ         -0.481242        -3.18086        -6.11118
LJ          -1.05151         2.90219         3.77642
LJ          -5.90761         5.78167         6.03895
LJ           5.51087        0.143463         -2.4837
LJ          -2.12616        0.955257         2.56348
LJ         -0.771173          6.1084        -6.28364
LJ         -0.271059        -4.77647         6.06585
LJ           4.73137         4.27668       -0.582925
LJ          -2.70283        -2.78945         4.42582
LJ          0.502371         2.86588        -1.77401
LJ           6.05152        -4.04453        -1.79015
LJ            -5.826        -3.48027         4.32965
LJ          -2.67048         4.99687        -2.99948
LJ           2.77771           1.947         3.64543
LJ          -4.15884        -3.71337        -3.50517
LJ           4.71701        0.166073        -4.10924
LJ          -3.66993        -2.20571        -3.48198
LJ           5.23618        -3.06777        -6.20035
LJ          -0.52472         2.66541       -0.152057
LJ          -3.23046         3.29326         4.23993
LJ          -5.33779         4.01292        -5.94329
LJ          -5.31411         -3.0425         4.35303
LJ           1.79766        -4.95375         4.73647
LJ          -4.29731         5.42194        -3.42559
LJ          -1.77613         1.19773        0.718522
LJ           4.62354         2.90664        -6.36496
LJ           1.28034        -1.44061         1.66576
LJ          -2.62445         3.74654        -3.98772
LJ          -4.35196        -6.13269        0.334872
LJ          -2.32298         2.41194       -0.984741
LJ           3.55824         4.49946         1.27991
LJ          -0.58986        -3.76801        -2.01756
LJ          -1.04504         1.97532         2.14896
LJ            3.9455         3.47642         2.57949
LJ           4.06988        -1.15746        -5.84144
LJ          -4.78322         -3.3692        -1.43368
LJ          -6.00502        -4.51474          -4.372
LJ          -1.65489        -6.41263         6.29276
LJ          -2.76795         2.38419         2.81185
LJ           6.20321         5.06426         1.64741
LJ           -6.2155         2.28886       -0.472444
LJ          -3.48452        -1.39149         5.08393
LJ           3.58389         2.12245         -1.8948
LJ          -1.10198        -4.44303        -4.55067
LJ          -3.58135        -1.03797         3.40294
LJ          -3.76162        -6.40702        -2.03222
LJ           5.68076        0.854791       -0.350975
LJ           6.03728         5.73452       0.0901334
LJ           3.13712         3.04869        -1.86235
LJ        -0.0425851           4.386        -2.91073
LJ          0.299616         2.62438        0.586156
LJ          0.831031         2.16769         2.05019
LJ           1.19793         -2.2861        -3.24402
LJ           2.22808        -5.77134         2.15628
LJ          -1.41749         3.75986         6.20965
LJ           2.22887        -3.56769         6.40552
