108
#Comment!
LJ          0.922163        0.243235        -2.72432
LJ           4.25786        -1.17776         3.50222
LJ           3.50504        0.138067        0.656887
LJ            4.7322         2.52004        0.512383
LJ          -4.03397         -5.5156        -5.53485
LJ           3.80421         3.91241        0.570096
LJ          -2.82302       -0.579586         3.97885
LJ           4.35023         -1.9701        -4.27336
LJ          -2.23552         2.77735         1.94455
LJ          -3.71602       -0.110825        -6.05032
LJ           -2.7066      -0.0150661        -5.17392
LJ          -3.44243         3.31883        0.497711
LJ           1.07009         6.18637       -0.677564
LJ          -4.10637         -1.8318       -0.497638
LJ           -1.9727          1.6735        -5.25525
LJ          -1.20536        -2.49563         2.89875
LJ         -0.724322        -3.62355         6.25126
LJ         -0.821252         4.98447        -5.10551
LJ          -2.47972        -2.97423        -6.08495
LJ          -3.97041         4.62585        -6.01162
LJ          -2.22264         1.88503         1.70386
LJ           3.58276         5.74019         1.01694
LJ           6.19676          1.1116        -5.91005
LJ           1.00022        -4.26862         2.87847
LJ          -2.82722        -2.19698        0.208269
LJ           6.02219         6.19423        -1.41953
LJ          -5.44953         6.15706       -0.996182
LJ          -5.25338       -0.823254        -5.00783
LJ          0.782302         5.91589         1.13381
LJ           1.42244       -0.276131         3.82902
LJ           1.60819         4.00195        -4.08092
LJ           3.45961         6.23737       0.0595429
LJ           5.47293       -0.847232         4.54625
LJ           3.44564        -2.82394        -1.95853
LJ           5.57128         5.28092         1.78562
LJ         -0.486795         -1.3576         -4.7839
LJ          -4.01378         6.37222         5.17787
LJ          -4.23117          -0.219         1.68337
LJ          -1.31173       -0.686832         5.59252
LJ          -5.76801         4.50559       -0.642412
LJ           5.51245        -3.04374        -2.47134
LJ          0.727374        -4.65006         3.95592
LJ          0.343659        -2.73207        -1.45389
LJ          -3.13916       0.0176987         2.33676
LJ           5.00144         3.93305         5.95762
LJ           5.59575        0.641752       -0.234718
LJ          -5.07723        -3.32584        -2.18443
LJ          -3.21775       -0.675764         5.93987
LJ           2.62287        -1.33574         5.20466
LJ           5.13802        0.279556        -2.00882
LJ          -1.78728        -3.63508        0.109001
LJ          -2.47702        -6.12087        -3.35895
LJ          -3.28085         5.05626        -2.50398
LJ           3.40924         4.81567       -0.226862
LJ           2.32977         5.86487        -2.07697
LJ          -3.61928         5.40125         5.65001
LJ            3.9651         3.16685        -3.73983
LJ          -4.33003         4.93181        -2.18229
LJ           2.91524        -4.72324       0.0225583
LJ          -4.03824        -6.18487       -0.716135
LJ           -1.6274        0.278295         6.08583
LJ          -2.84626         3.96838          2.2525
LJ          -4.99487         6.10407         5.86399
LJ           4.43542        -6.35762         1.12286
LJ           5.89154         6.25807          2.0696
LJ           3.06966        -6.41117        -1.71807
LJ           3.57723        -2.23815       -0.729915
LJ           1.50158         2.84012        -4.21227
LJ           5.54795        -1.90574        -2.63504
LJ           1.84221         3.63319         2.82336
LJ          -1.23646         1.05317         1.25018
LJ           -3.8644        -1.30419         2.36927
LJ           6.42015        -3.47802        -2.29064
LJ          -1.81405        -3.57039         6.38792
LJ          -4.54674        -2.95268        -3.86167
LJ           2.04207        -1.45175       -0.858317
LJ           4.68292         3.04708         6.45004
LJ          -1.80681        -1.80995         4.55875
LJ          -5.44447        -6.45415         -4.1153
LJ          -2.36575        -4.07934        -5.68776
LJ          0.533648       -0.625985        -4.70817
LJ           4.26615        -1.29385        -3.10522
LJ            3.3657       -0.107516        -1.22612
LJ          -2.35638       -0.842845         4.92197
LJ          0.639783         4.81916        -6.35993
LJ          -3.60684       -0.426491        0.149055
LJ          -1.71778         1.06761         2.32861
LJ          -5.22873         3.66611         6.30402
LJ            4.0595        -1.17896        -1.57308
LJ           1.78836         5.46474        -1.11476
LJ          -5.25713         4.11802         4.32529
LJ           6.08451        -0.05221        -2.61385
LJ          -4.49589         4.89783        -4.87406
LJ           1.94603         1.58794         1.00804
LJ            -4.201        -5.88022        -3.91253
LJ           4.67924        -2.44779        -1.67361
LJ          -2.27815        -1.81991         3.19963
LJ         -0.765729        -4.87897         3.80391
LJ          -0.62476        -4.79461        -5.38437
LJ           6.26773         4.98398        -1.18391
LJ          -2.52751        0.320569         1.44743
LJ           2.54341        0.378485       -0.173487
LJ           3.82227        0.992151        -3.67255
LJ          -1.33254        0.242824        0.289143
LJ          -6.04908         2.96581          1.4514
LJ           4.49126         3.52045         1.94807
LJ          -2.32023        -3.69484        -1.86997
LJ          -5.72433         1.42246         6.42266
