108
#Comment!
LJ          -3.33538         -3.3995        -3.13286
LJ          -1.78011        -2.42277        -3.06884
LJ          -3.02399         -2.0354        -2.36291
LJ          -1.25685        -3.98596        -1.67281
LJ         -0.608659        -3.19438        -2.99644
LJ          0.946915        -2.39692        -3.88253
LJ          -1.42464        -2.01098         -1.5405
LJ        -0.0493413        -2.70606        -2.10043
LJ           2.41821        -3.15936        -3.54311
LJ            1.4576        -1.92252        -2.28791
LJ          0.715277        -3.37138        -2.94653
LJ           1.56058         -3.1853        -1.73661
LJ          -3.66299        -1.18637        -2.31969
LJ          -1.70461       0.0740677         -3.1156
LJ          -2.66565        0.900127        -1.77137
LJ          -2.48215        -1.76152        -1.49186
LJ         -0.504135       -0.563229        -2.42661
LJ        0.00880626       -0.961582        -3.52484
LJ           -1.2253         0.10936        -2.00793
LJ          0.374382       -0.593865        -1.85207
LJ           1.08136        -1.06154        -3.01488
LJ           1.34439        0.632224        -2.17646
LJ            1.3907       -0.451361        -1.53467
LJ           3.23477       -0.934988        -1.52531
LJ          -3.58217        0.872711        -3.50269
LJ          -3.24176         2.04518        -3.19696
LJ          -3.28438         1.18773        -2.62635
LJ          -1.92599         1.22903        -2.39195
LJ          -1.87323         1.34131        -3.49206
LJ         -0.536807         1.77834        -3.14837
LJ          -1.76905         2.21465        -2.80819
LJ         -0.463456         1.01968        -2.11973
LJ          0.348451        0.378203        -1.83451
LJ           1.12661         1.60556        -3.04984
LJ          0.238115         2.05625        -2.49307
LJ            1.9019         1.64228        -1.99359
LJ          -2.44457        -3.82008       -0.473988
LJ          -1.93221        -3.03843        -1.10222
LJ           -3.4251        -3.49209       0.0135269
LJ          -1.95145        -2.26993        0.175887
LJ         -0.654854        -2.85545        -1.03064
LJ         -0.150012         -1.4862        -1.52499
LJ          -1.72662       -0.931373       -0.617863
LJ         0.0545254        -2.64197      -0.0507282
LJ          0.659781        -2.53728         -1.0864
LJ           3.38378          -1.413       -0.631659
LJ           0.97889        -2.04378       -0.261038
LJ           1.25453        -2.78575        0.298521
LJ          -3.33005      -0.0597237        -1.75384
LJ          -2.07553        0.125436        -1.38806
LJ          -4.35764        0.373023       0.0178527
LJ          -2.74475       -0.927547        -0.90289
LJ        -0.0876734        -1.87948        -2.90219
LJ         -0.422698        0.633002        -1.02553
LJ         -0.554188       -0.379213        0.245864
LJ          0.314353        -1.62298        0.206041
LJ            1.9765        -1.59341        -1.45033
LJ            2.1134        0.395731        -1.65056
LJ          0.268917       -0.551722       -0.568083
LJ           1.22475        -0.91227       -0.318544
LJ          -3.19637         1.52846       -0.732422
LJ          -1.23142           1.792        -1.66826
LJ          -4.28639          2.8137       -0.346197
LJ          -2.42252        0.227886       -0.234077
LJ          -1.16943        0.113914       -0.458211
LJ         -0.279491         2.01295        -1.44867
LJ         -0.928475         1.24817       -0.470582
LJ          0.158468         1.72685       -0.421369
LJ          0.994407         1.13229        -1.23507
LJ           1.34433          2.6152       -0.656035
LJ          0.642366         1.60677         0.48739
LJ           1.94687         1.92406       -0.119915
LJ          -2.68173        -2.84285        0.948596
LJ          -2.18756         -1.8996         1.71138
LJ           -2.9654        -1.26478         2.57902
LJ          -2.44892        -3.74241         1.70096
LJ        -0.0418795        -3.83747         1.82732
LJ         -0.447153        -2.68432        0.874638
LJ         -0.261605        -0.95644         2.39203
LJ          0.687464        -2.98606         2.01505
LJ          0.563927        -3.56268        0.813529
LJ           2.17278        -2.27167        0.797293
LJ            1.5513        -2.52907         1.50917
LJ           1.82729        -3.45029         2.00949
LJ          -3.15785       -0.980073        0.757603
LJ          -3.00635        0.039865        0.591026
LJ          -2.57769        0.616937         2.07524
LJ          -2.34998       -0.740704         1.70198
LJ          -1.90753      -0.0898814        0.852647
LJ         -0.447282        -0.61496         1.24577
LJ          -1.37449       -0.396947         2.09016
LJ          0.796795        -1.18778         3.38053
LJ           1.28766        -1.72882        0.719218
LJ           2.21113        0.949169        0.299121
LJ            1.7785        0.827646         2.25405
LJ           1.94426          -0.719         1.21048
LJ          -2.91708         1.07772        0.567984
LJ          -2.17223         2.46706        0.962856
LJ          -2.40957         1.19287          2.9397
LJ          -1.62496         1.38792         1.27099
LJ         -0.197103         0.66515         1.65752
LJ          0.149011         2.77329         1.01393
LJ         -0.684796         1.91309         2.72909
LJ         -0.541021        0.819229         2.86826
LJ           1.56379            1.46         1.04609
LJ            2.7288         1.49712         1.28192
LJ          0.540967         0.93751          2.1678
LJ           2.73689        0.882025         2.74315
