108
#Comment!
LJ          -1.11005         4.80671        -3.01785
LJ          -3.57629         4.59039         2.15117
LJ         -0.357546         2.99083        -0.93586
LJ           0.66759         3.73195         4.86148
LJ         0.0562776        -5.16774         6.44516
LJ          0.484046        -3.29205       -0.842998
LJ           3.47938        0.631359         2.90624
LJ           -4.9682       0.0376206        -1.91008
LJ           4.43976        -1.14535        -5.16893
LJ          -5.09087        -6.44029         2.98416
LJ           2.36218        -5.05693        -4.11868
LJ          -2.41138         -3.2679       -0.873279
LJ          -5.50465         -4.1221        -3.79725
LJ           2.43016        -1.77275        0.676871
LJ          -2.53944        -4.82506         4.92633
LJ           1.07705        -1.92462       -0.247422
LJ           3.42192          2.6495         -1.5968
LJ           4.88396        -4.31575        -6.31503
LJ           5.88873         6.06926         2.20462
LJ            5.9709        -3.33175       -0.121869
LJ           2.31431        -6.38702         1.58017
LJ          -5.43752        -3.23885        -6.43395
LJ           6.25997        -3.19913        -1.64051
LJ          -1.60213          4.1061        -5.00978
LJ          -1.43914         3.59266         1.81029
LJ          -4.04433         5.84312         -1.2065
LJ           2.73909       -0.652161        -1.94077
LJ           -5.7272         1.78105         6.32676
LJ           5.94745        0.587333         2.00834
LJ          -5.03496         2.49688        -4.42645
LJ            1.6612         4.41109         2.17877
LJ           2.01047         5.02449         4.97373
LJ           -5.0888        -2.73008         2.31029
LJ          -6.22047        -4.75918         5.52393
LJ          0.920128       -0.220694         3.64088
LJ          -5.11838        -4.72722         1.56015
LJ          -2.12343        -0.67082         -4.6416
LJ          -2.98891        -5.75118        -2.49215
LJ           2.05053         4.76358         -1.3206
LJ           5.13219         4.82951         2.08201
LJ          -4.49601         4.71298         2.28024
LJ           1.31932        -4.98366         2.24697
LJ           4.08076         5.54162         5.61205
LJ           3.56964         1.61664        -4.88164
LJ         -0.210784         2.75708        -1.89821
LJ          -5.76118        -4.44671        -3.50676
LJ          -4.67521        -4.26647         5.29274
LJ          -4.50008         3.19628        -5.97854
LJ          -3.83863         1.22784        -5.67333
LJ           -5.2777         -5.5253        -3.53551
LJ           4.78558         -2.8982         0.74956
LJ           4.73582        -2.49265         6.04924
LJ           2.67013        -6.35037         5.94808
LJ          -1.74503        -5.91951        -5.27987
LJ            0.9204         5.81522        -6.07707
LJ          -3.96133         2.31241         3.60472
LJ           1.37413         3.46753        0.669164
LJ          -4.54921       0.0607966        -2.23083
LJ           2.29307         1.52379        -1.20894
LJ          -1.73099        -1.98594         2.19314
LJ           3.91557         3.81108          5.4293
LJ          -3.59033         2.31755        -5.66421
LJ           2.83354        -5.54625        0.753373
LJ          -6.18163        -2.52456          1.7872
LJ            2.1527        -1.19712        -5.63859
LJ           1.81087         1.78923         1.93592
LJ          -1.35618         2.61164       -0.999642
LJ          -3.43152         1.97739       -0.239297
LJ          -4.21036        -1.49563        -4.67492
LJ             -3.98        -4.46182         2.08199
LJ           6.15674         5.12981        -4.43292
LJ           5.68301        0.329077         3.32468
LJ          0.485241        -5.92834         3.41412
LJ          -5.60144        0.155503       -0.147946
LJ           2.61806        -3.72393        -3.62876
LJ           6.44326        -5.68435        -0.73897
LJ           4.82949        -4.89948        0.221551
LJ           4.69137       0.0960241        -5.28941
LJ          -5.72386           2.364         -4.0618
LJ         -0.929665         1.55705         6.02522
LJ          -5.62981         5.21305         3.21121
LJ           1.52211        -3.72116        -6.27022
LJ          -5.01312         0.44912        -2.53266
LJ          -5.38995         1.33026        -5.78033
LJ           6.31421          1.6046         5.59477
LJ           3.10878        -5.05603         1.37383
LJ           4.48936         2.81195        -3.18278
LJ          -2.50942        -6.27136         3.22942
LJ          -6.15144         4.50963          3.6437
LJ           4.60622         4.04335         -1.3143
LJ           -3.3174           5.819        -5.75784
LJ          -4.40633       -0.337677        -1.07772
LJ          -1.52514         6.35389         4.34708
LJ          -3.46518         5.98467         3.73899
LJ           4.24854       0.0327905        -5.84365
LJ          -4.80487         5.44465         3.41706
LJ         -0.661792        -1.47087        -2.13061
LJ           -0.3652        -3.05549         4.44915
LJ           2.33002        -2.24948         6.44174
LJ           2.31375        -5.05116         6.36834
LJ          -1.35961        -5.55453        -4.24195
LJ           1.19591         1.95245         5.08991
LJ            4.7464         5.18082        0.262234
LJ           -4.7547        0.551867        -3.64067
LJ           5.69647        -2.32736         3.51243
LJ           2.43053         5.64984       0.0576685
LJ            1.7776        -5.82801        -4.04241
LJ           2.12903         5.74171        -3.00826
