108
#Comment!
LJ          0.880626        -0.10858        -3.18897
LJ           4.53957        -1.22081         2.21387
LJ           2.69118        -0.51438         1.15327
LJ           4.90279         3.25775         1.18025
LJ          -3.41827        -4.89381         6.24976
LJ           3.59228         5.24975         0.47068
LJ          -2.45412        -1.08987         4.09743
LJ           4.65652        -1.86754        -3.83576
LJ          -1.10609         4.57989         1.62145
LJ          -3.46619        0.413743         -5.9316
LJ          -3.94493       -0.689261        -5.21936
LJ          -3.67988         2.31175       -0.327816
LJ          0.806615         5.09701       -0.907125
LJ          -4.47285       -0.281803        0.556402
LJ          -2.49281        0.998169        -5.48352
LJ          -1.34189        -3.29316         2.11097
LJ          0.238419         -4.6145         6.09986
LJ          -1.06527         3.58725        -4.71135
LJ          -3.27472        -2.72725         5.99218
LJ          -3.69456         2.68475        -5.24248
LJ          -2.06532         1.32152         2.21658
LJ           4.12335         5.67063         1.78007
LJ          -6.24333        0.901554        -4.88838
LJ           1.18199        -4.79829         3.29873
LJ          -2.20471         -3.2788        0.392766
LJ           5.72019        -5.73758        -2.44347
LJ          -5.55641         4.78923        -1.89583
LJ          -5.78341        -1.18531        -4.39405
LJ           1.01903        -5.81258        0.783361
LJ           1.80746       -0.055853         4.47527
LJ           1.71542         3.98186        -3.71778
LJ           3.84251         6.39885       0.0063396
LJ            5.7753        -1.87071         4.32759
LJ           3.29292        -2.59293        -1.09293
LJ           5.46651         5.25137         1.29407
LJ         -0.816151        -1.11698          6.4622
LJ          -2.75478         6.08702         4.62229
LJ          -4.38816       -0.383136         1.63853
LJ          -1.83771        -1.10691         5.84488
LJ          -5.96082         4.44205      -0.0925987
LJ           3.60912        -2.79681        -2.74461
LJ         -0.836076        -5.28038         4.39385
LJ          0.990598        -3.74051        -1.85842
LJ          -4.38484        0.417987         2.43328
LJ          -6.42776         5.42911        -6.07977
LJ            5.1527         1.37874        0.393325
LJ          -5.35455        -3.11632       -0.978578
LJ          -2.74665        0.420184         5.94878
LJ           1.42081        -1.06226         5.36632
LJ           5.69977       -0.896991        -1.71158
LJ          -1.53627        -3.73776        -0.25914
LJ          -1.97669        -4.83911        -3.74823
LJ          -2.31877         3.38731        -2.21663
LJ           3.22649         5.07011       -0.853318
LJ           2.93201         6.07136        -2.57218
LJ          -5.05032         4.82048         5.46081
LJ            2.8908         3.31252        -4.28098
LJ          -4.17253         5.42934        -1.64888
LJ           1.45886        -3.64413       -0.640383
LJ          -5.92291         5.53123       -0.981966
LJ         -0.453186        0.368816         5.09522
LJ          -3.15985         3.90943         3.24837
LJ          -5.21422         5.92645         5.66988
LJ           3.69023        -6.18671         1.35984
LJ           6.08214        -5.29393         2.85284
LJ           3.29474        -5.40636        -2.53174
LJ           3.55182        -2.01627        -2.15448
LJ           1.12879         2.40668         -2.9997
LJ           5.21004        -1.77482         -2.5638
LJ          0.940981         3.89786         3.36747
LJ          -2.21241        0.466955         1.20669
LJ          -4.57653        -1.18108         3.59786
LJ          -6.26869        -2.82931         -1.4027
LJ         -0.718418        -3.97363        -5.80102
LJ          -3.88478        -1.99959        -3.84217
LJ           2.37628       -0.267989        -2.34602
LJ            5.8151         5.07772        -4.56999
LJ          -1.48379        -1.36018         4.94627
LJ          -4.82122        -6.38438        -4.40536
LJ          -1.89519        -4.34661        -4.56539
LJ         0.0315681        -0.92383        -3.52436
LJ            5.0839       -0.920065        -3.54005
LJ           3.22099        0.601659        -1.82299
LJ          -2.68095       -0.779565         5.30487
LJ         -0.467934         4.37667         5.85345
LJ           -3.4515       -0.434097       -0.450913
LJ           -1.9878      -0.0531716         2.31857
LJ          -6.13783         2.35441         5.33229
LJ           4.44789       -0.657203        -1.71601
LJ           1.01242         4.75721        -2.06983
LJ          -4.77684         3.71764          4.4123
LJ           5.89424        0.205694        -2.79969
LJ          -2.54786         4.98018         -5.7178
LJ           2.13025         1.74831         1.95443
LJ          -3.51505        -5.78003        -4.77942
LJ           5.10005        -1.98146        -1.35983
LJ          -1.43599        -1.48695         3.71906
LJ         -0.199481        -3.90446         2.33578
LJ         -0.240018        -5.45816        -6.45177
LJ            5.9309         4.74876        -1.24364
LJ          -3.20992        0.790732         1.45285
LJ           3.26413        0.362695        0.132738
LJ           4.15149         1.24138         -2.9106
LJ          -2.05385      -0.0921489        0.259936
LJ          -5.77861         3.38148         1.04003
LJ           4.52368         2.72434         2.05819
LJ          -1.07982        -4.40202        -1.35056
LJ          -5.83057         1.30071        -5.99989
