108
#Comment!
LJ          -5.84339         1.09368         1.40788
LJ          -3.97245        -1.43283       -0.544361
LJ          -1.80258        -3.58411         4.65951
LJ          -2.57031        0.931203        -5.27765
LJ            5.8322      -0.0441141         5.42393
LJ          -4.92919        -2.02027        -1.66738
LJ          -2.51597         2.41196         3.24098
LJ          -1.18831      -0.0499542        -2.51984
LJ           6.04253        -3.64275        -4.53348
LJ           2.62102         6.17284         -3.8447
LJ          -3.93005         -2.7326         2.47663
LJ           -3.1386         1.23601         2.36172
LJ           4.74961        -6.24958       -0.606863
LJ           6.21429       -0.202245      -0.0246421
LJ           3.42417        -5.35101       -0.667653
LJ          -2.98441         4.51373        -6.02724
LJ          -1.60437       -0.247395        -5.00473
LJ          -5.81639           4.966        -3.18915
LJ           1.05061         -6.0035         5.77898
LJ           5.65295        0.804532        0.931935
LJ            -4.596        -6.30897        -6.14826
LJ           -3.3475         1.38753         -3.0295
LJ          -3.41951        -5.20141         2.53339
LJ          -3.81627         2.51008       -0.829443
LJ          -6.14008         5.61718        -1.19136
LJ          -3.97064        -6.36816        -5.56249
LJ           5.69214          0.5912         3.88164
LJ         -0.133845        -3.12767    -0.000442853
LJ          -3.36341        -5.74471        -0.59492
LJ           2.15053        -1.10614        -4.82147
LJ          0.110603         1.79535         2.03482
LJ            4.7382         5.41045          5.6721
LJ         -0.193313        -3.85756         1.28129
LJ          -5.95613        -6.28378         1.29331
LJ          0.448636        -1.64695         2.67156
LJ           1.86368         5.41022        -5.47927
LJ           1.03547         -6.1725        -4.52678
LJ           2.41519         3.80462        -3.73365
LJ           0.89856         5.35803        -1.36469
LJ          -3.34518        -2.60943         -2.4005
LJ            4.1261        -2.51785         3.84252
LJ          -3.06423        -6.12869         3.78748
LJ          -2.17142        -2.72201        -4.10145
LJ           5.29825         2.71124        -1.46279
LJ          -3.06991         0.52862        -4.24381
LJ          -3.47653         1.58181         3.02297
LJ           2.44569        -1.77008        -3.78364
LJ           4.10874         3.64013         2.78161
LJ           2.29231        -1.33641         4.60318
LJ           5.71074        -4.30371         2.15324
LJ           1.53827         2.06811        0.157249
LJ           3.37841       -0.429391        -1.96703
LJ           3.89026         -2.4092        -5.05435
LJ          -5.70656        -1.94156        -6.34671
LJ          0.744552         5.78704        -1.76532
LJ           -4.9303         3.18255        -2.22381
LJ       -0.00470912         1.68145        -1.97407
LJ          -4.79106        0.650949        0.536634
LJ          -3.97841        -5.86659        0.553056
LJ         -0.964133         2.47373         4.02259
LJ          -3.04728         1.69111        -4.78507
LJ           1.11516         3.27755        -5.39294
LJ          0.935013         3.92348          4.0668
LJ          0.692785         -4.7098        0.973487
LJ            3.0596         5.97848       -0.106543
LJ          -3.90728         1.93942        -5.80024
LJ           -3.8026         6.01842          6.2994
LJ           1.82897         -1.2296         3.96438
LJ          -5.94272         2.58075        -1.05685
LJ           2.68904         -2.6459         4.06183
LJ          -2.19004         5.01439         2.64823
LJ           2.24725        0.815058        -1.77647
LJ           4.64244        -2.02381        -5.35155
LJ          0.990168         6.14871         4.63479
LJ           3.25115        0.613586        -5.20166
LJ          -6.13227         5.90694        -5.42579
LJ           2.37408       -0.756211        0.194503
LJ          -3.23004         2.41303         -2.0457
LJ           5.76308        0.439627        -5.37029
LJ         -0.576008         -5.1325        -6.09013
LJ            6.3534         4.67708        -1.62293
LJ           1.56965         2.24355         1.38413
LJ          0.440353        -2.39272         4.82866
LJ           2.41078         4.50355         4.90507
LJ            2.7033        -3.92872        -6.10366
LJ          -3.72795        0.122715          2.4404
LJ           4.96126        -5.23766         4.49898
LJ           2.62668       -0.834814         4.02231
LJ           3.14996       -0.890334       -0.321449
LJ           3.61878         4.56721        -1.48561
LJ           5.73165         4.40717       -0.344814
LJ          0.199232         6.32872         2.43275
LJ          -4.78412         5.86667       -0.870817
LJ          -0.51989        -2.62839         1.19929
LJ            1.5696        -5.65735         -5.3915
LJ          -4.29658        -3.76221         3.71999
LJ           4.75334         1.53562        -1.89453
LJ           4.95471        -5.22074         3.40175
LJ         -0.170148        -4.32058        -3.20626
LJ           5.17212         4.37007        -4.71779
LJ          -6.00598         -5.7521      -0.0949206
LJ           4.15833         5.61555        -6.31044
LJ          0.823802         1.92125         2.18467
LJ          -3.41451         2.36249         4.75118
LJ          -5.24493        0.746314         3.17948
LJ           2.65924          3.8517         2.18279
LJ         -0.044171       0.0696626        -4.05433
LJ          0.310105        -1.86359         5.77496
