108
#Comment!
LJ          -5.89855        -5.55179        -3.66953
LJ          -3.11509      -0.0840127        -3.77393
LJ            -3.253        -1.85921        -1.55671
LJ          0.405387        -5.54468        0.332477
LJ        -0.0709207        -2.65167        -3.14206
LJ           2.77729        -4.00829         6.28917
LJ          -1.79876        -2.67648      -0.0686935
LJ         -0.407235        -1.68561         -2.7277
LJ           4.90378        -2.41829        -4.84822
LJ          0.818411        -2.16922        -2.58169
LJ           2.55839        -5.36448         -5.1869
LJ           2.86258        -4.16358         -1.5268
LJ          -4.24386       -0.249404       -0.713294
LJ          -1.82988          1.4455        -3.75854
LJ          -2.18552         1.42292        -1.80605
LJ          -3.46673        -4.92549       -0.828656
LJ           0.55722        -1.40688        -3.34133
LJ          0.151869         -1.2796        -4.27522
LJ          -1.03997       -0.619855        -1.78443
LJ           1.18745       -0.846667        -1.83951
LJ           0.98238        -2.26014        -3.68902
LJ           1.93995       -0.493813        -3.96499
LJ           2.74516         1.33354       0.0149755
LJ           4.77908       -0.509297        0.290816
LJ          -4.41527        0.366681        -4.94539
LJ          -4.74211        0.715844        -3.87768
LJ          -3.59962        0.635574        -4.38949
LJ         -0.702982         1.40371        -4.23887
LJ            -4.659         1.26989        -6.41669
LJ          -4.11714         2.37899        -5.90271
LJ          -1.99032         2.03181        -2.87566
LJ          0.939747       -0.270268        -3.23459
LJ           1.92617       -0.301617        -2.99379
LJ         0.0867834         2.04698        -4.15931
LJ      -5.36264e-05         4.41199        -2.55207
LJ           2.77176        0.787172         -2.2158
LJ          -1.46478        -6.35286         1.23308
LJ         -0.529598        -2.27773        -1.74515
LJ          -2.54958        -6.30422        0.773402
LJ          -1.97164        0.161176        0.104686
LJ          0.899249        -2.54371       -0.594754
LJ          -2.00837        -1.16451        -3.67297
LJ          -4.19139        -2.53123         0.87196
LJ        -0.0173632        -2.63572       -0.110028
LJ          0.453881        -2.18879        -1.53338
LJ           5.67181       0.0124963        0.768831
LJ           2.36525       -0.970968        -1.54601
LJ          -1.01425        -2.72618          1.2642
LJ          -4.62857        -1.44832        -2.94652
LJ          -3.18573        0.555343        -1.12518
LJ          -5.75903         1.74163         1.09662
LJ          -6.04217       0.0567994         1.59527
LJ           1.23383        -5.39534        -4.50823
LJ          -1.68782          2.6515       -0.727467
LJ         -0.668514         1.15123         -1.1344
LJ          0.216629        -1.28227         2.24375
LJ          -4.83877        -2.18806          1.5661
LJ           3.94305          0.8045        -2.06132
LJ          -1.84609        -1.68991       -0.760217
LJ          -1.53706       -0.500441       -0.724422
LJ          -3.92932         3.71109            1.82
LJ          -2.01649         3.36419        -3.00828
LJ           5.80438          5.3137        -0.42594
LJ          -3.41652        0.011623      -0.0173106
LJ           -2.6311        0.870576        0.685639
LJ           0.01613         3.85791        0.107251
LJ          -1.41611         4.61859       -0.652886
LJ          0.751291         1.69198         0.27825
LJ          0.997487       -0.219582         0.23496
LJ        -0.0965749         5.27001         1.15817
LJ          0.222795        0.562017         1.91012
LJ           1.82123         5.10755       -0.507746
LJ          -1.39588        -1.49339         0.73964
LJ          -1.91214        -1.04567         1.84157
LJ          -3.10206        0.755649         3.65386
LJ          -3.56321        -4.48948        0.807792
LJ           2.51381        -5.31032         4.77195
LJ          -1.76269        -3.42152        0.833255
LJ          0.585702        -2.12952         4.36216
LJ          0.718263         -2.7614         1.04001
LJ          0.723251        -6.26255         2.51669
LJ            3.5234        -1.43788        -1.49479
LJ            1.6892        -3.18177        0.314528
LJ           1.57032        -3.67895         1.37233
LJ          -3.82027        -3.44603       -0.195955
LJ          -4.27043        0.715338       -0.395541
LJ          -1.02683         1.04126         0.49116
LJ          -2.31109          -1.088        0.360052
LJ          -4.40112       -0.232562        0.481355
LJ         -0.631289       -0.883146         3.17293
LJ          -2.23984        -1.68051         2.99276
LJ           3.02471        -1.05019         6.19436
LJ          0.923976        -1.53102        -0.28792
LJ           2.95333         2.06175        -1.15101
LJ           3.08184         2.57268         1.80341
LJ           2.12525       -0.161496       0.0588895
LJ          -3.98287         1.01484        0.814043
LJ          -2.83266          1.9279        0.175779
LJ          -1.09118       -0.873636         5.77919
LJ          -2.25139         1.57989        -0.67039
LJ         -0.849119        0.339061         1.40116
LJ          0.947435         4.37411        0.554741
LJ         0.0229431        0.969333         3.60158
LJ         -0.020287       -0.142228         2.67624
LJ            3.3034          1.0181         1.18913
LJ           2.54724        0.281689         1.73247
LJ           1.71416        0.796105         6.21304
LJ           3.51884        0.679546         3.05421
