108
#Comment!
LJ           4.62374         5.36466        -5.11971
LJ           4.71079         1.14798         2.54393
LJ         -0.326631         5.61893       -0.362519
LJ           2.77094        0.201395          6.1509
LJ          -4.29245        -4.92006       -0.898359
LJ         -0.334994         6.10059        0.988814
LJ          -5.46351        0.232687        -4.03806
LJ          -5.15531       -0.973643         3.92581
LJ          -6.25165         1.98385         4.80195
LJ           1.14141         1.39863        -2.38665
LJ            2.5207         -1.6478         5.22729
LJ           3.04561        -4.94567        -0.08358
LJ           5.59797         4.73658         -2.7449
LJ          -2.44591         2.49316        -4.53751
LJ          -1.13893        -1.68242         1.50155
LJ          -3.92044         5.15394         1.73453
LJ           3.58546         1.43576         5.74789
LJ           5.00853        -5.15304         5.82626
LJ           -6.1037        -5.39909        -4.38254
LJ          -4.62745        0.811567        -5.53726
LJ           1.12063         3.33294       -0.471105
LJ          -1.59809         2.74902         1.90587
LJ           1.66816         5.24341          2.8644
LJ          -2.11824         -5.0866       -0.844398
LJ          -3.30087          3.5907        -1.15573
LJ          -4.67455        -3.64113        -3.71167
LJ          -3.49197          -3.629        0.328529
LJ           5.74706         2.98903         1.27958
LJ           2.50596       -0.549869        -2.37201
LJ         -0.439743        -6.44852          2.1273
LJ           5.98746        -3.82834        -4.57641
LJ          -1.68477        -2.20214         1.81997
LJ           2.95237         4.14302          5.3961
LJ          -2.26786       -0.706173        -2.13238
LJ          -2.30316           2.694        -3.82619
LJ          -2.91103        -3.88162        -3.69348
LJ           2.11404        -1.22675        -3.31821
LJ           2.00166        -3.19597        -3.14521
LJ           5.94997       -0.492253        -3.53557
LJ           1.86575        -5.29581        -4.21875
LJ           3.92115         -4.4336        -2.88694
LJ           4.77516         1.66142       -0.386421
LJ          -5.89144        -1.87665        -1.73368
LJ            4.7213       -0.057981         3.82596
LJ          -5.82692        -1.31652         5.87401
LJ          -3.61654         4.05193        0.606621
LJ           -1.6849       -0.747862         3.02355
LJ           6.25499         5.03331        -5.44163
LJ           5.09972         5.28508        -1.71267
LJ         -0.728914         3.77842         2.64628
LJ           5.03959        -5.51094         1.83844
LJ           2.43093         2.49814         1.96897
LJ         0.0147748         1.72997        -5.78548
LJ          -3.37796        -1.40182         5.27957
LJ          -2.78136        -5.55022         4.44546
LJ           5.79373       -0.311922        -2.26283
LJ           1.95442         3.27688        0.867915
LJ          0.555455        -3.41425         -1.3255
LJ           6.04564         5.91917         2.87074
LJ          -4.80767         4.05508        -1.73618
LJ          -4.37468         1.13845        -4.13602
LJ           0.56389        -2.72129        0.809675
LJ          -3.72814       -0.125322         5.51789
LJ          -2.30593         2.14113         -4.8541
LJ          0.219198         2.63521        -2.27313
LJ           5.11171         5.85613         2.32065
LJ         -0.274806         2.97476          1.6125
LJ          -5.99859         1.57984         -2.1794
LJ          -5.72623        -4.77058          3.7242
LJ          -3.47008         4.68986        -5.40893
LJ           1.05676        -4.86176        0.855808
LJ          -4.44723        -3.21403        0.267771
LJ        -0.0430091        0.899953        0.868576
LJ          -1.53337        -5.88587         3.07295
LJ          -5.26684         4.47679        -4.10032
LJ           6.23576         6.19644          3.7413
LJ           6.36458         5.37967         2.43295
LJ          -0.52339         3.27459         1.46123
LJ         -0.102667       -0.338916        -4.28523
LJ           6.23054        -1.77225        -5.68494
LJ          -5.51136        -5.25452         5.49064
LJ           2.18437         4.20461         1.26616
LJ          -6.04316         -2.2923        -6.25468
LJ          -5.21893        -1.88118        -5.30568
LJ           5.83774        -4.60741        -4.60116
LJ           4.30962        -3.57072        -1.43251
LJ          -4.10353         6.26184        -0.02664
LJ          -0.60306        -2.28291        -4.69032
LJ           4.14977        -3.47739          6.1229
LJ           -1.8859        -1.06311        -1.77441
LJ          -5.22794         -4.4253        -3.87323
LJ          -5.01048        -2.25479        -5.81071
LJ         -0.421258         4.69875        -3.79318
LJ           1.77209       -0.633084         4.40845
LJ          -1.12223        -5.11842        -3.09089
LJ           2.29076        -1.24962       -0.151195
LJ         -0.266452        0.780301         -3.5957
LJ           -5.0939         2.55624         1.39209
LJ           1.16746         6.33647       -0.608802
LJ           5.68853        -1.51509         5.98295
LJ          -1.24742        -3.00589         3.90726
LJ          -2.31401        -4.74909         -3.3063
LJ           3.11842         2.86036         5.22166
LJ           -3.8861         1.39773        -4.24481
LJ          -5.54988        -5.57605        -4.14764
LJ        0.00359631        -2.55227         5.43537
LJ         -0.464925        -1.19049        -5.87664
LJ           4.10623        0.733407         2.01278
