108
#Comment!
LJ          -5.67044         6.28688         6.17299
LJ           5.87518         4.34669        -4.17298
LJ          -1.83736       -0.982618         6.46147
LJ          -3.47114        -4.58455       -0.275915
LJ           1.37148         4.88879        -2.81009
LJ           5.83444        -1.36617         2.34472
LJ          -3.73065        -5.99266          -3.104
LJ          -2.00422        0.178186       -0.982615
LJ          -5.10572          1.3127         3.85563
LJ           3.71061         5.87192       -0.926422
LJ           4.82956       -0.998997        -2.80651
LJ           5.69382        -3.85157        -5.06675
LJ          -2.58971     -0.00232925       -0.112695
LJ          -2.23213         1.57385        -3.63619
LJ           1.58636       -0.262707          -2.987
LJ          -2.82799        -5.75447         4.89127
LJ          -1.98675         3.34373         0.89535
LJ           5.71089         0.95907         -5.9829
LJ           6.13405        -1.49804         5.78183
LJ           2.23133         -3.3351        -3.13397
LJ           2.62028         4.00062        -2.15287
LJ          0.760513         3.15798         3.87698
LJ          -5.56774        -3.76546        -5.08401
LJ          -3.80338            5.48        -3.60122
LJ          -4.83109         5.61049        -4.52072
LJ          -5.79972         4.18793         4.17289
LJ          -3.56434         2.80852        -1.37992
LJ           1.39766         2.58371        -3.68726
LJ           2.68095      -0.0361256        -1.34954
LJ          -2.38385         2.69479        -4.00981
LJ           4.16063         2.07648        -2.62845
LJ           2.37989         3.12676         -3.4574
LJ           1.46014        -5.88292        -3.75756
LJ           1.97136         4.00386         -4.3975
LJ           -3.1142         1.54212         5.40911
LJ           5.97286         3.66498         2.01947
LJ          0.946937         3.62358        0.117987
LJ           1.03488         3.65881        -2.69451
LJ           2.28939       -0.721917        -5.16528
LJ          0.876728        -3.15913         4.48413
LJ          -4.40097         3.49816         2.69008
LJ          -1.38383          -3.197         5.20972
LJ          -2.45781         1.53584         2.42073
LJ           3.71533        -1.59649       -0.856721
LJ          -2.33167         -3.5923        0.451389
LJ         -0.647855        -1.88259        -6.25354
LJ            6.3599        -5.67062        -3.85352
LJ            4.4047        -5.15217         2.24137
LJ          -4.24291        0.309345         4.84137
LJ         -0.531968         4.76863        -2.30651
LJ          -4.92859         4.78648       -0.350995
LJ           4.99363         0.50655        0.242624
LJ          0.843625         4.65417         2.20491
LJ           5.30058         6.13553         1.77762
LJ          -5.63216        -3.31571       -0.675375
LJ           2.47513         2.00048        -1.99483
LJ           5.33793        -3.44752         6.43394
LJ            3.5101         -4.4933        -3.94134
LJ           1.48738         5.88192       -0.104462
LJ           2.62239         3.04304         4.36921
LJ           4.67381         5.61096          1.2724
LJ          -5.57166         4.97702         4.07626
LJ           5.40804       -0.529381        -3.63765
LJ           6.37889         1.62602         5.18735
LJ           4.59538        -1.69376         5.85132
LJ          -3.11907        -4.17335        0.265874
LJ           3.07172          4.3944        -4.60545
LJ          -5.15674        -4.28933        -5.00421
LJ          -2.94515         2.33701        -4.51406
LJ          -2.69179         2.14055        -5.32798
LJ          -2.76696        0.239133        -1.77619
LJ          -5.58312        0.194556        -1.80773
LJ           2.50342         4.76519         1.03008
LJ          -4.72386         5.23769         1.70896
LJ          -3.38464        -3.68959         4.72867
LJ           5.22866        0.805417         1.06629
LJ           2.40946        -5.04918        0.420065
LJ          -5.17966          1.6349        -3.70858
LJ           3.04353        -4.79208        -2.48213
LJ           1.75929          3.8793         1.52525
LJ         -0.951737        -3.07082         3.07694
LJ         -0.263548         3.24387        -3.23803
LJ          -1.98239        -4.41198         5.45631
LJ         -0.942316        -1.17605        -4.00408
LJ           5.65495         6.32342        -4.58334
LJ       -0.00560346        -5.19322        -2.03459
LJ           4.88032        -1.26306        -2.20587
LJ           5.94627         3.33878         -1.2885
LJ          -1.25985        -2.49503        0.227174
LJ          -1.02714       -0.296032         1.31641
LJ          -1.98868        -2.16661        -4.65002
LJ          -3.62139         3.57332        -4.95944
LJ           4.94372       -0.094908         1.37883
LJ           1.09937         1.69753        -1.47324
LJ           2.61582         1.88125        -2.77135
LJ          0.839451        0.202219       -0.311536
LJ          -4.99339        0.814555        -6.01869
LJ           3.39982          2.1839         1.65399
LJ            5.2813         5.02838        -4.19991
LJ           -1.8248        -2.17294        0.610029
LJ           3.30028         1.00441        -4.83889
LJ          -6.16449         2.20127       -0.408953
LJ          -4.18789        0.837017        0.528899
LJ           -5.9626         2.97528         2.43913
LJ         -0.254621         5.15109         1.76978
LJ          -2.10969       -0.629029         5.29661
LJ           -6.4093        -1.09422         2.75938
LJ          -4.80373        -1.46864        -2.16329
