108
#Comment!
LJ  0.36361350774070555   -0.30332629005589307   0.37300776712814726
LJ  0.28578331340316709   -0.026736359269330399   -0.062445552490604059
LJ  -0.21778720834541318   -0.14936568061425801   0.062865473502254757
LJ  -0.1770181245738443   -0.29614166129003539   -0.35399862564733353
LJ  -0.30637222549758591   -0.41923237495283888   -0.21189500785418791
LJ  -0.33077047837067314   8.7303303453471458e-06   0.10671089174944819
LJ  -0.30579420215874059   0.13593516564713237   -0.20880546777579095
LJ  0.12738993675454308   0.36010633969545902   0.23814780371269426
LJ  -0.21916049954162667   0.043253109486483275   0.36886943635531755
LJ  -0.28411858810312468   0.17912956811434055   0.20616633856338007
LJ  0.028484655974545768   0.26540503553463218   -0.22760225589266106
LJ  0.25386985901607539   0.2454428604826101   0.0044011661478896629
LJ  0.34240331980271377   0.35246244517989905   0.14276415293341452
LJ  -0.20071560227054136   0.17288442659200334   -0.43274291606676624
LJ  0.23929990344992   0.38954178514604293   0.42269167490703413
LJ  -0.18587297945972192   0.3776227584941329   0.47264515638188975
LJ  0.13831822321792162   -0.21944475667676144   0.43414129616469088
LJ  0.24120044052195938   -0.28038084846043171   0.22872592869185404
LJ  -0.2544675205368111   -0.19432520426112349   0.49459479324776523
LJ  0.013684103618022039   0.48602228774861661   0.45850571053769545
LJ  0.071477609734517902   0.27219155901185704   0.40997961274044792
LJ  -0.033889111995908355   0.28459737973069799   -0.4135490242939876
LJ  0.3979846362639976   0.069601710766232214   0.41999259818870965
LJ  0.44524021735282515   -0.38810883586272732   0.16752846177906747
LJ  0.062437700594039032   -0.087154737115500189   -0.21117475873706651
LJ  0.24323009650963753   0.28910308816608499   -0.18737290186128128
LJ  -0.11228640261541224   0.21864736534975265   0.37381178859908298
LJ  0.24311699191029121   0.13674032958467577   0.32661584291338946
LJ  0.40570633133022704   0.14516337103539162   -0.062938868551893776
LJ  -0.49802469852243392   -0.15806900965337897   0.4540470843877541
LJ  -0.36012205405167691   0.034740737659126532   -0.45286671715536819
LJ  -0.11858792618384457   0.48296944805498809   -0.37808439614605116
LJ  0.46841599636074294   0.49533206368199456   0.43424871953457
LJ  -0.30228563345928822   -0.39291117058286373   0.17231287600786402
LJ  0.059317199572102429   0.34324624752071076   -0.043901958720410139
LJ  0.044042266344036039   -0.093078125543965259   -0.010810381447769577
LJ  -0.082842575536079571   -0.26000807300452117   0.15867186388305024
LJ  0.40366318030972653   0.46288187611342574   -0.38333565468936331
LJ  -0.094529260976513499   0.40792818086811172   0.28055542799751176
LJ  0.46484872418231249   -0.18685510292339683   -0.34436170556744106
LJ  -0.37485066764127878   -0.094152370452217859   0.28765801495804971
LJ  0.37342195091492353   0.25207728263753931   -0.47731059658887631
LJ  0.03351953247880584   -0.41068767660697836   -0.11465430935445488
LJ  0.1331917564269825   -0.1978051957551489   -0.35251728862284748
LJ  -0.47470419497411825   -0.35546448648388529   -0.46015969002479346
LJ  0.040419444369261107   0.11182042063867918   0.27902148647737635
LJ  0.33234428891984064   -0.34865435612420514   -0.33717617084368279
LJ  0.31558473144180305   0.078451050844009662   0.13845002536596815
LJ  0.028406722782507953   -0.40788176723799358   0.27918946600781763
LJ  -0.49344462782832116   -0.34409110408011578   -0.23276121760940621
LJ  -0.40169877994154107   0.3342208723747489   -0.4825065136553936
LJ  -0.35870608714677921   0.38459278265570601   -0.08688733627638795
LJ  0.31134928155481179   -0.071957941220239144   -0.26858824345811777
LJ  -0.43086577878611204   -0.38625797519186067   0.0084245568029660198
LJ  0.45765013443842861   0.31763485718031192   -0.19886090944583368
LJ  0.19293586130969972   -0.096364786145198486   0.11354933702075957
LJ  -0.049098495536272074   0.086446347467558929   -0.27581192994999648
LJ  0.084954900594139307   -0.27662673489387912   0.026929885682290988
LJ  -0.38311314561192578   0.18202310699181534   0.39195408351525807
LJ  0.45452725004526429   0.47558823046547066   -0.0655307279027421
LJ  0.085740833125758822   0.11487783361678411   0.015507475448224971
LJ  -0.29358272351757064   -0.45734734765802326   -0.44092175309830617
LJ  -0.16335137410983933   -0.41682664312777173   0.35125905068532981
LJ  -0.1096986859096344   0.44836693376315928   -0.1754076892379671
LJ  0.037886205542473426   -0.3931418711582898   -0.33132452067915374
LJ  -0.43426101293590597   -0.025555317656880877   -0.26623219632041112
LJ  0.3018483126657972   -0.49515289275407715   0.26007266475411933
LJ  -0.14461545450126356   -0.0017008111005515501   -0.079844837793584228
LJ  0.33167634291425835   -0.25230699755441699   0.065816928142615139
LJ  -0.49461832959582924   0.44455361501525359   0.24292334387025907
LJ  -0.32922256920156318   0.36326644034637917   0.32632768861880518
LJ  -0.46379358719453545   0.26544770521152078   0.095552692499237257
LJ  -0.41196966982395589   -0.17195995230256728   0.092971978872559355
LJ  0.15445540637629712   0.40322784915848736   -0.39247143119633493
LJ  -0.35272579240436475   -0.20880659699742554   -0.30583486870943616
LJ  -0.020052709370961153   0.25220374135756579   0.13016145979864338
LJ  0.4704961308038022   -0.020219618327022973   0.037150756430093294
LJ  -0.11865381653196702   0.053224307304734451   0.10329650712599135
LJ  -0.39792105692457808   0.42365283723254071   -0.30555889281482468
LJ  0.19593484157706745   0.14970040812365765   -0.41893730291080006
LJ  -0.41636402843293141   -0.3553441971376905   0.35410029384544006
LJ  0.4225080462720654   -0.10410378416589545   0.20845048372967528
LJ  -0.22924927138129531   0.31458713754557849   -0.26766501876507937
LJ  0.22059075651953114   0.4567412191864067   0.030472161255181332
LJ  0.28447005103451034   -0.10429257638530692   -0.48043418454206227
LJ  0.45698543200528935   -0.15531560700223163   -0.096034324668683779
LJ  0.10269195858682084   -0.0064285789937125254   0.45792997266773178
LJ  0.18325633934392732   0.10884899966604039   -0.23737827392116428
LJ  -0.34474369289504192   -0.044082163889315809   -0.093309375063007821
LJ  -0.0055532481040970957   -0.49187662403504601   0.11107641487941332
LJ  -0.21565806099201082   -0.017778159403406157   -0.29520462019337329
LJ  -0.068404545381678547   -0.27424527486265399   0.4649884644289512
LJ  -0.14281547840243658   -0.17049427186674787   -0.1999017876329727
LJ  0.21717147853251328   -0.23523346533344563   -0.17304751423537873
LJ  0.48721449438221759   0.095341402935075314   0.23135955045374848
LJ  -0.18840950328639194   -0.42014169871181356   -0.050051346731918564
LJ  0.25306618362137667   -0.067779436996692533   0.30522760240017593
LJ  -0.12701432654375125   0.20031099608906264   -0.096319097719942598
LJ  0.40080698711730389   0.080888036376850977   -0.37051745047965995
LJ  -0.28282471881686405   0.16931118395928044   -0.0082701442880592745
LJ  -0.086245933813202474   -0.063176853012999745   -0.43719914486095324
LJ  0.40250763116212457   0.27492210103767528   0.32212232682138259
LJ  -0.19039868800010648   -0.20018137786342585   0.29599872381522807
LJ  -0.31907634572202997   -0.2543998306255455   -0.077292194656712318
LJ  0.1974091545006417   -0.41751230120125521   -0.48331043071460983
LJ  -0.18145766146834852   0.34827823312862394   0.067408729854123772
LJ  0.25763618056215554   -0.44811655875605949   -0.16612222373718355
LJ  0.017622319836087513   -0.12296037669753325   0.27988775681731431
